# vtk DataFile Version 1.0
results.vtk  2D Unstructured Grid of Linear Triangles
ASCII

DATASET UNSTRUCTURED_GRID
POINTS 6 double
-5 2.5 0
-1.57182e-07 -2.5 0
1.57182e-07 2.5 0
5 -2.5 0
5 2.5 0
-5 -2.5 0
CELLS 4 16
3 0 1 2
3 3 4 2
3 1 0 5
3 3 2 1
CELL_TYPES 4
5
5
5
5

POINT_DATA 6
VECTORS displacements double
0 0 0.0
-0.00248896 -0.00648774 0.0
0.00273977 -0.00749099 0.0
-0.00286022 -0.0144326 0.0
0.00367493 -0.015685 0.0
0 0 0.0

SCALARS summary double
LOOKUP_TABLE default
0
0.0069488
0.00797629
0.0147133
0.0161097
0

SCALARS SmoothStress double
LOOKUP_TABLE default
0
0
0
0
0
0

CELL_DATA 4
TENSORS stress double
10619.6 -3619.6 0
-3619.6 -1358.07 0
0 0 0
2654.15 -2654.15 0
-2654.15 -4345.85 0
0 0 0
-10619.6 -10380.4 0
-10380.4 -2654.9 0
0 0 0
-2654.16 -4345.84 0
-4345.84 -4676.5 0
0 0 0

SCALARS XY_STRESS double
LOOKUP_TABLE default
-3619.6
-2654.15
-10380.4
-4345.84

SCALARS XY_DEFORM double
LOOKUP_TABLE default
-0.000452449
-0.000331769
-0.00129755
-0.00054323

SCALARS mises_stress double
LOOKUP_TABLE default
12974.8
7655
20368.8
8553.42

VECTORS deformation double
0.000547955 -0.000200648 -0.000452449
0.00018703 -0.000250469 -0.000331769
-0.000497793 0 -0.00129755
-7.42517e-05 -0.000200648 -0.00054323

SCALARS mises_deformation double
LOOKUP_TABLE default
0.00103179
0.000689038
0.00230189
0.000957169
