# vtk DataFile Version 4.2
vtk output
ASCII
DATASET UNSTRUCTURED_GRID
FIELD FieldData 2
__Time 1 1 double
1 
METADATA
INFORMATION 0

Name 1 25 char
65 115 109 98 58 32 80 97 114 
116 58 32 77 97 116 108 58 69 
76 65 83 84 73 67 0 
METADATA
INFORMATION 0

POINTS 24 double
-5 8.881784197e-16 0 
-5 -5 0 
-8.881784197e-16 -5 0 
-5 5 0 
-0.46425967981 0.46425967981 0 
8.881784197e-16 5 0 
5 -8.881784197e-16 0 
5 5 0 
8.881784197e-16 5 0 
-5 5 0 
-5 8.881784197e-16 0 
-0.46425967981 0.46425967981 0 
5 -5 0 
5 -8.881784197e-16 0 
-8.881784197e-16 -5 0 
5 -8.881784197e-16 0 
-0.46425967981 0.46425967981 0 
-8.881784197e-16 -5 0 
-0.46425967981 0.46425967981 0 
-5 8.881784197e-16 0 
-8.881784197e-16 -5 0 
-0.46425967981 0.46425967981 0 
5 -8.881784197e-16 0 
8.881784197e-16 5 0 

METADATA
INFORMATION 2
NAME L2_NORM_RANGE LOCATION vtkDataArray
DATA 2 0.656562 7.07107 
NAME L2_NORM_FINITE_RANGE LOCATION vtkDataArray
DATA 2 0.656562 7.07107 

CELLS 8 32
3 0 1 2 
3 3 4 5 
3 6 7 8 
3 9 10 11 
3 12 13 14 
3 15 16 17 
3 18 19 20 
3 21 22 23 

CELL_TYPES 8
5
5
5
5
5
5
5
5

CELL_DATA 8
FIELD FieldData 4
Global%20Element%20ID 1 8 int
1 2 3 4 5 6 7 8 
METADATA
INFORMATION 0

Block%20ID 1 8 int
1 1 1 1 1 1 1 1 
METADATA
INFORMATION 0

Parent%20ID 1 8 int
1 1 1 1 1 1 1 1 
METADATA
INFORMATION 0

Material%20ID 1 8 int
1 1 1 1 1 1 1 1 
METADATA
INFORMATION 0

POINT_DATA 24
FIELD FieldData 7
Displacement 3 24 double
0.00017993545856 -0.00082479251822 0
0.00044168653997 -0.0017522969429 0 
6.9190964685e-05 -0.0012212765819 0 
0 0 0 
1.5893941204e-05 -0.00057575684938 0 
0 0 0 
-0.00011058039295 -0.00072947008184 0 
0 0 0 
0 0 0 
0 0 0 
0.00017993545856 -0.00082479251822 0 
1.5893941204e-05 -0.00057575684938 0 
-0.00029870288539 -0.0016615762318 0 
-0.00011058039295 -0.00072947008184 0 
6.9190964685e-05 -0.0012212765819 0 
-0.00011058039295 -0.00072947008184 0 
1.5893941204e-05 -0.00057575684938 0 
6.9190964685e-05 -0.0012212765819 0 
1.5893941204e-05 -0.00057575684938 0 
0.00017993545856 -0.00082479251822 0 
6.9190964685e-05 -0.0012212765819 0 
1.5893941204e-05 -0.00057575684938 0 
-0.00011058039295 -0.00072947008184 0 
0 0 0 

METADATA
INFORMATION 2
NAME L2_NORM_RANGE LOCATION vtkDataArray
DATA 2 0 0.00180711 
NAME L2_NORM_FINITE_RANGE LOCATION vtkDataArray
DATA 2 0 0.00180711 

Principal%20stress%20vector%201 3 24 double
0.037256208666 0.33062987141 0 
0.05464192338 0.41874414514 0 
-0.00077125940837 0.27802879579 0 
-0.010299929348 0.34726175705 0 
-0.010701264349 0.23938321995 0 
0.0085594623581 0.28496384643 0 
-0.029157119644 0.29351919283 0 
0.070538790915 0.35457283933 0 
0.0085594623581 0.28496384643 0 
-0.010299929348 0.34726175705 0 
0.037256208666 0.33062987141 0 
-0.010701264349 0.23938321995 0 
-0.053650837277 0.44174230457 0 
-0.029157119644 0.29351919283 0 
-0.00077125940837 0.27802879579 0 
-0.029157119644 0.29351919283 0 
-0.010701264349 0.23938321995 0 
-0.00077125940837 0.27802879579 0 
-0.010701264349 0.23938321995 0 
0.037256208666 0.33062987141 0 
-0.00077125940837 0.27802879579 0 
-0.010701264349 0.23938321995 0 
-0.029157119644 0.29351919283 0 
0.0085594623581 0.28496384643 0 

METADATA
INFORMATION 2
NAME L2_NORM_RANGE LOCATION vtkDataArray
DATA 2 0.239622 0.444988 
NAME L2_NORM_FINITE_RANGE LOCATION vtkDataArray
DATA 2 0.239622 0.444988 

Principal%20stress%20vector%202 3 24 double
-0 -0 -4.0736935019e-18 
0 0 3.0118142412e-17 
-0 -0 -6.5144009047e-19 
-0.082467770043 -0.0024460286445 -0 
-0.039741976872 -0.0017766048947 -0 
-0.082967656357 0.0024921004556 0 
-0.022173952879 -0.002202679119 -0 
-0.12699793554 0.025264994462 0 
-0.082967656357 0.0024921004556 0 
-0.082467770043 -0.0024460286445 -0 
-0 -0 -4.0736935019e-18 
-0.039741976872 -0.0017766048947 -0 
0 0 2.7322367862e-17 
-0.022173952879 -0.002202679119 -0 
-0 -0 -6.5144009047e-19 
-0.022173952879 -0.002202679119 -0 
-0.039741976872 -0.0017766048947 -0 
-0 -0 -6.5144009047e-19 
-0.039741976872 -0.0017766048947 -0 
-0 -0 -4.0736935019e-18 
-0 -0 -6.5144009047e-19 
-0.039741976872 -0.0017766048947 -0 
-0.022173952879 -0.002202679119 -0 
-0.082967656357 0.0024921004556 0 

METADATA
INFORMATION 2
NAME L2_NORM_RANGE LOCATION vtkDataArray
DATA 2 6.5144e-19 0.129487 
NAME L2_NORM_FINITE_RANGE LOCATION vtkDataArray
DATA 2 6.5144e-19 0.129487 

Principal%20stress%20vector%203 3 24 double
0.01448595912 -0.0016323144469 -0 
0.075436310415 -0.0098436841244 -0 
0.020019525669 5.5534706321e-05 0 
0 0 2.1864288338e-17 
0 0 1.463875278e-18 
0 0 2.4711092057e-17 
0 0 1.5178555976e-18 
-0 -0 -1.3114473827e-17 
0 0 2.4711092057e-17 
0 0 2.1864288338e-17 
0.01448595912 -0.0016323144469 -0 
0 0 1.463875278e-18 
0.08716242358 0.010586119907 0 
0 0 1.5178555976e-18 
0.020019525669 5.5534706321e-05 0 
0 0 1.5178555976e-18 
0 0 1.463875278e-18 
0.020019525669 5.5534706321e-05 0 
0 0 1.463875278e-18 
0.01448595912 -0.0016323144469 -0 
0.020019525669 5.5534706321e-05 0 
0 0 1.463875278e-18 
0 0 1.5178555976e-18 
0 0 2.4711092057e-17 

METADATA
INFORMATION 2
NAME L2_NORM_RANGE LOCATION vtkDataArray
DATA 2 1.46388e-18 0.0878029 
NAME L2_NORM_FINITE_RANGE LOCATION vtkDataArray
DATA 2 1.46388e-18 0.0878029 

Stress 10 24 double
-0.010223136812 0.32836781321 -4.0736935019e-18 0.03864395903 0 0 0.33621726116 0.33272231207 -4.0736935019e-18 -0.014577635682 
-0.067731863055 0.41395022136 3.0118142412e-17 0.063943501991 0 0 0.4600981958 0.42229420892 3.0118142412e-17 -0.076075850611 
-0.020017309156 0.278027572 -6.5144009047e-19 -0.00082679093352 0 0 0.29429741487 0.27802986554 -6.5144009047e-19 -0.020019602696 
0.082736884775 0.347181626 2.1864288338e-17 -0.0078504482836 0 0 0.31369167556 0.34741447359 0.082504037186 2.1864288338e-17 
0.040180232606 0.23922372714 1.463875278e-18 -0.0089157552709 0 0 0.22151138991 0.23962229247 0.039781667268 1.463875278e-18 
0.083187238806 0.28491020452 2.4711092057e-17 0.0060646266992 0 0 0.25433158443 0.28509236778 0.083005075544 2.4711092057e-17 
0.024947528873 0.2922993769 1.5178555976e-18 -0.026822427469 0 0 0.28561729797 0.29496381843 0.022283087344 1.5178555976e-18 
0.13832033005 0.35268758893 -1.3114473827e-17 0.044403636676 0 0 0.30305716511 0.36152125721 0.12948666177 -1.3114473827e-17 
0.083187238806 0.28491020452 2.4711092057e-17 0.0060646266992 0 0 0.25433158443 0.28509236778 0.083005075544 2.4711092057e-17 
0.082736884775 0.347181626 2.1864288338e-17 -0.0078504482836 0 0 0.31369167556 0.34741447359 0.082504037186 2.1864288338e-17 
-0.010223136812 0.32836781321 -4.0736935019e-18 0.03864395903 0 0 0.33621726116 0.33272231207 -4.0736935019e-18 -0.014577635682 
0.040180232606 0.23922372714 1.463875278e-18 -0.0089157552709 0 0 0.22151138991 0.23962229247 0.039781667268 1.463875278e-18 
-0.080058081372 0.43724355404 2.7322367862e-17 -0.063768362312 0 0 0.48593458174 0.44498839983 2.7322367862e-17 -0.087802927166 
0.024947528873 0.2922993769 1.5178555976e-18 -0.026822427469 0 0 0.28561729797 0.29496381843 0.022283087344 1.5178555976e-18 
-0.020017309156 0.278027572 -6.5144009047e-19 -0.00082679093352 0 0 0.29429741487 0.27802986554 -6.5144009047e-19 -0.020019602696 
0.024947528873 0.2922993769 1.5178555976e-18 -0.026822427469 0 0 0.28561729797 0.29496381843 0.022283087344 1.5178555976e-18 
0.040180232606 0.23922372714 1.463875278e-18 -0.0089157552709 0 0 0.22151138991 0.23962229247 0.039781667268 1.463875278e-18 
-0.020017309156 0.278027572 -6.5144009047e-19 -0.00082679093352 0 0 0.29429741487 0.27802986554 -6.5144009047e-19 -0.020019602696 
0.040180232606 0.23922372714 1.463875278e-18 -0.0089157552709 0 0 0.22151138991 0.23962229247 0.039781667268 1.463875278e-18 
-0.010223136812 0.32836781321 -4.0736935019e-18 0.03864395903 0 0 0.33621726116 0.33272231207 -4.0736935019e-18 -0.014577635682 
-0.020017309156 0.278027572 -6.5144009047e-19 -0.00082679093352 0 0 0.29429741487 0.27802986554 -6.5144009047e-19 -0.020019602696 
0.040180232606 0.23922372714 1.463875278e-18 -0.0089157552709 0 0 0.22151138991 0.23962229247 0.039781667268 1.463875278e-18 
0.024947528873 0.2922993769 1.5178555976e-18 -0.026822427469 0 0 0.28561729797 0.29496381843 0.022283087344 1.5178555976e-18 
0.083187238806 0.28491020452 2.4711092057e-17 0.0060646266992 0 0 0.25433158443 0.28509236778 0.083005075544 2.4711092057e-17 
METADATA
COMPONENT_NAMES
XX
YY
ZZ
XY
YZ
XZ
Mises
Principal%201
Principal%202
Principal%203
INFORMATION 2
NAME L2_NORM_RANGE LOCATION vtkDataArray
DATA 2 0.408645 0.802193 
NAME L2_NORM_FINITE_RANGE LOCATION vtkDataArray
DATA 2 0.408645 0.802193 

Strain 10 24 double
-5.4366740387e-05 0.00016571737712 -4.7721701459e-05 2.5118573369e-05 0 0 0.00017012271237 0.00016854780139 -4.7721701459e-05 
-5.7197164652e-05 -9.5958464731e-05 0.00021713489014 -5.1932753746e-05 4.1563276294e-05 0 0 0.00023251146481 0.00022255848205 
-5.1932753746e-05 -0.00010138205664 -5.1712790378e-05 0.00014201638237 -3.8701539426e-05 -5.3741410679e-07 0 0 0.00014428048904 
0.00014201787317 -3.8701539426e-05 -5.1714281179e-05 -1.0708801512e-05 0.00016118028028 -6.4487776616e-05 -5.1027913843e-06 0 0 
0.00015719465319 0.00016133163121 -1.0860152445e-05 -6.4487776616e-05 -1.5793442767e-05 0.00011358482868 -4.1910593961e-05 -5.7952409261e-06 0 
0 0.00011120796935 0.00011384389615 -1.6052510237e-05 -4.1910593961e-05 -1.1429112748e-06 0.00012997701644 -5.5214616499e-05 3.9420073545e-06 
0 0 0.00012698758523 0.00013009542256 -1.2613173954e-06 -5.5214616499e-05 -3.1371142099e-05 0.00014240755912 -4.7587035866e-05 
-1.7434577855e-05 0 0 0.00014223878307 0.00014413944611 -3.3103029092e-05 -4.7587035866e-05 1.6257026687e-05 0.00015559574496 
-7.3651187847e-05 2.8862363839e-05 0 0 0.00015862868139 0.00016133762934 1.0515142305e-05 -7.3651187847e-05 -1.1429112748e-06 
0.00012997701644 -5.5214616499e-05 3.9420073545e-06 0 0 0.00012698758523 0.00013009542256 -1.2613173954e-06 -5.5214616499e-05 
-1.0708801512e-05 0.00016118028028 -6.4487776616e-05 -5.1027913843e-06 0 0 0.00015719465319 0.00016133163121 -1.0860152445e-05 
-6.4487776616e-05 -5.4366740387e-05 0.00016571737712 -4.7721701459e-05 2.5118573369e-05 0 0 0.00017012271237 0.00016854780139 
-4.7721701459e-05 -5.7197164652e-05 -1.5793442767e-05 0.00011358482868 -4.1910593961e-05 -5.7952409261e-06 0 0 0.00011120796935 
0.00011384389615 -1.6052510237e-05 -4.1910593961e-05 -0.00010561557379 0.00023063048922 -5.35778209e-05 -4.1449435503e-05 0 0 
0.0002473839698 0.00023566463899 -5.35778209e-05 -0.00011064972356 -3.1371142099e-05 0.00014240755912 -4.7587035866e-05 -1.7434577855e-05 0 
0 0.00014223878307 0.00014413944611 -3.3103029092e-05 -4.7587035866e-05 -5.1712790378e-05 0.00014201638237 -3.8701539426e-05 -5.3741410679e-07 
0 0 0.00014428048904 0.00014201787317 -3.8701539426e-05 -5.1714281179e-05 -3.1371142099e-05 0.00014240755912 -4.7587035866e-05 
-1.7434577855e-05 0 0 0.00014223878307 0.00014413944611 -3.3103029092e-05 -4.7587035866e-05 -1.5793442767e-05 0.00011358482868 
-4.1910593961e-05 -5.7952409261e-06 0 0 0.00011120796935 0.00011384389615 -1.6052510237e-05 -4.1910593961e-05 -5.1712790378e-05 
0.00014201638237 -3.8701539426e-05 -5.3741410679e-07 0 0 0.00014428048904 0.00014201787317 -3.8701539426e-05 -5.1714281179e-05 
-1.5793442767e-05 0.00011358482868 -4.1910593961e-05 -5.7952409261e-06 0 0 0.00011120796935 0.00011384389615 -1.6052510237e-05 
-4.1910593961e-05 -5.4366740387e-05 0.00016571737712 -4.7721701459e-05 2.5118573369e-05 0 0 0.00017012271237 0.00016854780139 
-4.7721701459e-05 -5.7197164652e-05 -5.1712790378e-05 0.00014201638237 -3.8701539426e-05 -5.3741410679e-07 0 0 0.00014428048904 
0.00014201787317 -3.8701539426e-05 -5.1714281179e-05 -1.5793442767e-05 0.00011358482868 -4.1910593961e-05 -5.7952409261e-06 0 0 
0.00011120796935 0.00011384389615 -1.6052510237e-05 -4.1910593961e-05 -3.1371142099e-05 0.00014240755912 -4.7587035866e-05 -1.7434577855e-05 0 
0 0.00014223878307 0.00014413944611 -3.3103029092e-05 -4.7587035866e-05 -1.1429112748e-06 0.00012997701644 -5.5214616499e-05 3.9420073545e-06 
0 0 0.00012698758523 0.00013009542256 -1.2613173954e-06 -5.5214616499e-05 
METADATA
COMPONENT_NAMES
XX
YY
ZZ
XY
YZ
XZ
Mises
Principal%201
Principal%202
Principal%203
INFORMATION 2
NAME L2_NORM_RANGE LOCATION vtkDataArray
DATA 2 0.000205628 0.00044809 
NAME L2_NORM_FINITE_RANGE LOCATION vtkDataArray
DATA 2 0.000205628 0.00044809 

Node%20ID 1 24 int
144 141 145 140 147 143 146 139 143 
140 144 147 142 146 145 146 147 145 
147 144 145 147 146 143 
METADATA
INFORMATION 0

