# vtk DataFile Version 1.0
results.vtk  2D Unstructured Grid of Linear Triangles
ASCII

DATASET UNSTRUCTURED_GRID
POINTS 138 double
2 5 0
2.56465 4.10576 0
3 5 0
0 5 0
0.5 4.17653 0
1 5 0
-2 5 0
-1.5 4.17653 0
-1 5 0
-2.56465 4.10576 0
-3.62383 4.13213 0
-3 5 0
-5 5 0
-5 4 0
-4 5 0
-0.5 4.17653 0
1.5 4.17653 0
3.62382 4.13215 0
4 5 0
-4.16814 2.5042 0
-4.18189 3.48032 0
-5 3 0
5 4 0
5 5 0
-4.17653 0.5 0
-4.17653 1.5 0
-5 1 0
-5 -2 0
-4.17653 -1.5 0
-5 -1 0
-4.10576 -2.56465 0
-4.13213 -3.62383 0
-5 -3 0
-5 -5 0
-4 -5 0
-5 -4 0
-4.17653 -0.5 0
-5 0 0
-1.5 -4.17653 0
-2.5042 -4.16814 0
-2 -5 0
-0.5 -4.17653 0
-1 -5 0
0.5 -2.5296 0
0 -3.35307 0
1 -3.35307 0
4 -5 0
3.48905 -4.14984 0
3 -5 0
5 -5 0
5 -4 0
2.54488 -4.11111 0
2 -5 0
1.5 -4.17653 0
1 -5 0
4.1615 -3.61779 0
0.5 -4.17653 0
0 -5 0
4.15489 -2.53368 0
5 -3 0
4.17653 1.5 0
4.17653 0.5 0
5 1 0
4.16896 2.50425 0
3.35301 2.00914 0
4.18188 3.48066 0
5 3 0
-5 2 0
-3.23639 3.12084 0
-2.5296 2.5 0
-2.05166 3.33295 0
5 0 0
5 2 0
-1 3.35307 0
0 3.35307 0
-3.35307 1 0
-3 -5 0
-3.48032 -4.18189 0
-3.12084 -3.23639 0
-2.5 -2.5296 0
-3.33295 -2.05166 0
-3.35307 -1 0
-2.00865 -3.35344 0
4.17653 -1.5 0
5 -2 0
5 -1 0
3.35307 -1 0
4.17653 -0.5 0
3.2341 -3.12605 0
3.35338 -2.0089 0
2.05166 3.33295 0
1 3.35307 0
3.23615 3.12056 0
3.35307 1 0
2.5296 2.5 0
-3.35307 0 0
3.35307 0 0
2.05152 -3.33266 0
2.5296 -2.5 0
1.89472 -1.765 0
1.5 -2.5296 0
-1 -3.35307 0
2.5296 -0.5 0
-2.5296 -1.5 0
-0.5 -2.5296 0
-1.47277 -2.58286 0
2.5296 0.5 0
-3.35345 2.00866 0
-0.5 2.5296 0
0.5 2.5296 0
-1.5 2.5296 0
2.57783 1.46973 0
-2.58313 1.47291 0
-2.5296 0.5 0
1.5904 -0.910619 0
2.57841 -1.47013 0
1.5 2.5296 0
-0.963273 -1.6484 0
-1 1.70613 0
-1.89965 1.78046 0
-2.5296 -0.5 0
-0.0131666 1.68391 0
-1.70613 -1 0
-1.77994 -1.89965 0
0.441861 -0.845801 0
-0.0529632 -1.61558 0
1 -1.70613 0
1 1.70613 0
1.89386 1.76312 0
1.73376 -0.00222283 0
-1.60332 0.0358645 0
1.59563 0.902467 0
-0.766044 -0.543898 0
-0.622686 0.73565 0
0.898033 -0.0177889 0
-1.65454 0.96346 0
0.511437 0.883334 0
-0.0232713 0.0479891 0
CELLS 234 936
3 0 1 2
3 3 4 5
3 6 7 8
3 9 7 6
3 10 9 11
3 12 13 14
3 15 3 8
3 16 0 5
3 10 14 13
3 17 18 2
3 19 20 21
3 22 23 18
3 24 25 26
3 27 28 29
3 30 28 27
3 31 30 32
3 33 34 35
3 31 35 34
3 36 37 29
3 38 39 40
3 41 38 42
3 43 44 45
3 46 47 48
3 49 50 46
3 51 52 48
3 53 54 52
3 55 47 46
3 56 57 54
3 58 55 59
3 60 61 62
3 63 64 60
3 22 65 66
3 22 17 65
3 16 1 0
3 25 67 26
3 15 4 3
3 9 6 11
3 20 13 21
3 68 69 70
3 10 11 14
3 15 8 7
3 16 5 4
3 61 71 62
3 68 9 10
3 10 13 20
3 17 2 1
3 63 72 66
3 20 68 10
3 19 21 67
3 73 15 7
3 74 4 15
3 25 19 67
3 24 26 37
3 24 75 25
3 39 76 40
3 36 24 37
3 30 27 32
3 77 34 76
3 78 79 80
3 31 32 35
3 78 30 31
3 31 34 77
3 36 29 28
3 78 31 77
3 39 77 76
3 81 36 28
3 38 82 39
3 38 40 42
3 41 42 57
3 55 50 59
3 83 84 85
3 51 48 47
3 56 41 57
3 53 52 51
3 86 83 87
3 87 85 71
3 88 51 47
3 47 55 88
3 56 54 53
3 58 59 84
3 55 46 50
3 45 56 53
3 83 89 58
3 83 58 84
3 90 1 16
3 87 83 85
3 61 87 71
3 60 62 72
3 63 66 65
3 91 16 4
3 92 17 1
3 63 60 72
3 22 18 17
3 65 92 63
3 92 65 17
3 93 61 60
3 94 92 90
3 64 63 92
3 95 24 36
3 96 87 61
3 93 60 64
3 96 61 93
3 86 87 96
3 97 53 51
3 44 41 56
3 89 83 86
3 88 55 58
3 98 99 100
3 100 43 45
3 88 58 89
3 97 51 88
3 101 38 41
3 98 88 89
3 97 45 53
3 44 56 45
3 102 86 96
3 101 41 44
3 82 38 101
3 78 77 39
3 103 81 80
3 80 28 30
3 78 39 82
3 80 30 78
3 104 101 44
3 81 28 80
3 105 82 101
3 106 96 93
3 95 36 81
3 75 24 95
3 107 19 25
3 108 109 74
3 107 25 75
3 68 20 19
3 110 73 70
3 70 7 9
3 68 19 107
3 70 9 68
3 111 93 64
3 73 7 70
3 112 107 75
3 113 75 95
3 74 15 73
3 102 114 115
3 91 4 74
3 90 92 1
3 91 109 116
3 90 16 91
3 90 91 116
3 111 64 94
3 109 91 74
3 108 74 73
3 110 70 69
3 117 105 104
3 110 108 73
3 110 118 108
3 69 68 107
3 69 119 110
3 112 69 107
3 120 95 81
3 113 112 75
3 69 112 119
3 121 109 108
3 120 113 95
3 103 80 79
3 103 120 81
3 103 122 120
3 79 78 82
3 79 123 103
3 105 79 82
3 104 105 101
3 43 104 44
3 100 97 98
3 124 125 126
3 100 45 97
3 100 126 43
3 98 97 88
3 115 89 86
3 115 98 89
3 127 116 109
3 102 115 86
3 128 94 116
3 106 102 96
3 106 129 102
3 94 90 116
3 111 106 93
3 94 64 92
3 128 111 94
3 130 113 120
3 131 106 111
3 129 106 131
3 98 115 99
3 114 102 129
3 125 104 43
3 99 115 114
3 125 43 126
3 79 105 123
3 132 133 130
3 114 134 124
3 117 104 125
3 132 130 122
3 123 105 117
3 130 120 122
3 135 112 113
3 131 134 129
3 132 117 125
3 135 113 130
3 121 127 109
3 119 112 135
3 133 135 130
3 121 108 118
3 121 133 136
3 127 136 131
3 127 128 116
3 132 125 124
3 136 127 121
3 133 118 135
3 133 137 136
3 133 121 118
3 132 122 117
3 131 136 134
3 124 126 114
3 137 133 132
3 128 131 111
3 128 127 131
3 119 118 110
3 119 135 118
3 123 122 103
3 123 117 122
3 99 126 100
3 99 114 126
3 114 129 134
3 137 132 124
3 134 137 124
3 134 136 137
CELL_TYPES 234
5
5
5
5
5
5
5
5
5
5
5
5
5
5
5
5
5
5
5
5
5
5
5
5
5
5
5
5
5
5
5
5
5
5
5
5
5
5
5
5
5
5
5
5
5
5
5
5
5
5
5
5
5
5
5
5
5
5
5
5
5
5
5
5
5
5
5
5
5
5
5
5
5
5
5
5
5
5
5
5
5
5
5
5
5
5
5
5
5
5
5
5
5
5
5
5
5
5
5
5
5
5
5
5
5
5
5
5
5
5
5
5
5
5
5
5
5
5
5
5
5
5
5
5
5
5
5
5
5
5
5
5
5
5
5
5
5
5
5
5
5
5
5
5
5
5
5
5
5
5
5
5
5
5
5
5
5
5
5
5
5
5
5
5
5
5
5
5
5
5
5
5
5
5
5
5
5
5
5
5
5
5
5
5
5
5
5
5
5
5
5
5
5
5
5
5
5
5
5
5
5
5
5
5
5
5
5
5
5
5
5
5
5
5
5
5
5
5
5
5
5
5
5
5
5
5
5
5
5
5
5
5
5
5

POINT_DATA 138
VECTORS displacements double
9.16201e-13 9.16201e-13 0.0
-4.60219e-08 2.35566e-08 0.0
9.16201e-13 9.16201e-13 0.0
9.16201e-13 9.16201e-13 0.0
-7.09528e-08 4.74808e-08 0.0
9.16201e-13 9.16201e-13 0.0
9.16201e-13 9.16201e-13 0.0
-6.48785e-08 2.81799e-08 0.0
9.16201e-13 9.16201e-13 0.0
-5.0794e-08 5.92612e-08 0.0
-7.73974e-08 1.01342e-07 0.0
9.16201e-13 9.16201e-13 0.0
9.16201e-13 9.16201e-13 0.0
-1.02789e-07 1.55762e-07 0.0
9.16201e-13 9.16201e-13 0.0
-6.22227e-08 6.2998e-08 0.0
-4.66246e-08 2.64021e-08 0.0
-5.43028e-08 -6.30668e-09 0.0
9.16201e-13 9.16201e-13 0.0
-2.47038e-07 2.57544e-07 0.0
-1.26699e-07 1.91195e-07 0.0
-2.07743e-07 3.23448e-07 0.0
-8.25059e-08 -3.2703e-08 0.0
9.16201e-13 9.16201e-13 0.0
-5.25234e-07 4.93692e-07 0.0
-3.76651e-07 3.82761e-07 0.0
-4.23402e-07 5.68389e-07 0.0
-7.42994e-07 8.85688e-07 0.0
-6.92123e-07 7.11918e-07 0.0
-6.73907e-07 7.70692e-07 0.0
-8.17984e-07 8.02221e-07 0.0
-1.00969e-06 8.50209e-07 0.0
-9.51657e-07 9.33668e-07 0.0
-1.24477e-06 9.69094e-07 0.0
-1.2386e-06 8.39855e-07 0.0
-1.07245e-06 9.67164e-07 0.0
-6.03184e-07 6.21163e-07 0.0
-5.94093e-07 6.7883e-07 0.0
-1.07339e-06 3.59484e-07 0.0
-1.07061e-06 4.99185e-07 0.0
-1.14736e-06 4.27507e-07 0.0
-1.10987e-06 2.8803e-07 0.0
-1.12553e-06 3.43206e-07 0.0
-8.06694e-07 2.14604e-07 0.0
-8.9729e-07 2.60871e-07 0.0
-8.93712e-07 1.82092e-07 0.0
-1.03107e-06 -1.53639e-09 0.0
-9.63748e-07 1.3729e-08 0.0
-1.02155e-06 5.56176e-08 0.0
-1.04661e-06 -1.15688e-07 0.0
-9.25063e-07 -1.29126e-07 0.0
-9.69697e-07 4.73247e-08 0.0
-1.04832e-06 9.76131e-08 0.0
-1.02797e-06 1.21831e-07 0.0
-1.08691e-06 1.86854e-07 0.0
-8.62811e-07 -9.386e-09 0.0
-1.00878e-06 1.94204e-07 0.0
-1.10395e-06 2.3929e-07 0.0
-8.37952e-07 -1.99196e-08 0.0
-8.71687e-07 -1.10017e-07 0.0
-2.96705e-07 -5.52073e-08 0.0
-4.20373e-07 -7.04502e-08 0.0
-3.81638e-07 -1.54946e-07 0.0
-1.42909e-07 -3.39919e-08 0.0
-2.57136e-07 4.19076e-08 0.0
-5.84644e-08 -5.08945e-08 0.0
-9.20313e-08 -7.84124e-08 0.0
-3.19517e-07 4.68918e-07 0.0
-1.47163e-07 1.22713e-07 0.0
-1.90206e-07 1.68759e-07 0.0
-1.20282e-07 8.93376e-08 0.0
-4.61291e-07 -1.50868e-07 0.0
-2.49122e-07 -1.09175e-07 0.0
-1.01978e-07 9.70366e-08 0.0
-1.07147e-07 1.1029e-07 0.0
-4.02788e-07 3.50429e-07 0.0
-1.22305e-06 6.09583e-07 0.0
-1.01165e-06 7.0339e-07 0.0
-9.56793e-07 6.37026e-07 0.0
-7.86159e-07 4.70039e-07 0.0
-7.6696e-07 5.95325e-07 0.0
-5.74393e-07 5.1341e-07 0.0
-9.26415e-07 4.09672e-07 0.0
-6.5664e-07 -3.82547e-08 0.0
-7.33425e-07 -1.23326e-07 0.0
-6.49758e-07 -1.42373e-07 0.0
-5.84106e-07 -2.76461e-08 0.0
-5.94327e-07 -6.40746e-08 0.0
-8.1233e-07 8.77468e-09 0.0
-7.52346e-07 1.29294e-09 0.0
-1.05559e-07 5.76184e-08 0.0
-1.07985e-07 1.02489e-07 0.0
-9.03576e-08 5.13521e-09 0.0
-3.79278e-07 -4.42979e-08 0.0
-1.69315e-07 5.4689e-08 0.0
-4.90577e-07 4.14944e-07 0.0
-5.36215e-07 -5.88588e-08 0.0
-9.09917e-07 8.06916e-08 0.0
-8.19605e-07 5.26765e-08 0.0
-6.98966e-07 9.55457e-08 0.0
-7.80034e-07 1.18007e-07 0.0
-8.78344e-07 3.1007e-07 0.0
-5.93487e-07 5.17623e-08 0.0
-6.29248e-07 4.53967e-07 0.0
-7.6358e-07 3.04332e-07 0.0
-8.02165e-07 3.61803e-07 0.0
-4.41582e-07 3.5054e-08 0.0
-2.75027e-07 2.71276e-07 0.0
-1.6703e-07 1.44192e-07 0.0
-1.84987e-07 1.30756e-07 0.0
-1.80222e-07 1.45514e-07 0.0
-2.53665e-07 3.01875e-08 0.0
-2.97634e-07 2.73669e-07 0.0
-4.19066e-07 3.46743e-07 0.0
-5.90735e-07 1.01376e-07 0.0
-6.64816e-07 3.7071e-08 0.0
-1.66204e-07 8.94538e-08 0.0
-6.77415e-07 3.12243e-07 0.0
-2.1304e-07 1.91783e-07 0.0
-2.59921e-07 2.48334e-07 0.0
-5.2899e-07 4.23971e-07 0.0
-2.74503e-07 1.90579e-07 0.0
-5.73289e-07 3.4512e-07 0.0
-7.38173e-07 4.07534e-07 0.0
-5.71677e-07 2.06446e-07 0.0
-6.68113e-07 2.69364e-07 0.0
-6.5653e-07 1.38976e-07 0.0
-2.36527e-07 1.60232e-07 0.0
-2.45145e-07 7.05362e-08 0.0
-4.78211e-07 1.30991e-07 0.0
-4.4858e-07 3.06442e-07 0.0
-3.51261e-07 8.71365e-08 0.0
-5.2833e-07 2.64316e-07 0.0
-3.43465e-07 2.2439e-07 0.0
-4.38823e-07 1.44767e-07 0.0
-3.07774e-07 2.39089e-07 0.0
-3.98048e-07 1.65807e-07 0.0
-4.64009e-07 1.77978e-07 0.0

SCALARS summary double
LOOKUP_TABLE default
1.2957e-12
5.17003e-08
1.2957e-12
1.2957e-12
8.5374e-08
1.2957e-12
1.2957e-12
7.07342e-08
1.2957e-12
7.80508e-08
1.27517e-07
1.2957e-12
1.2957e-12
1.86621e-07
1.2957e-12
8.85461e-08
5.3581e-08
5.46678e-08
1.2957e-12
3.56871e-07
2.29365e-07
3.84416e-07
8.87509e-08
1.2957e-12
7.20835e-07
5.37002e-07
7.08757e-07
1.15606e-06
9.92905e-07
1.02378e-06
1.14571e-06
1.31997e-06
1.33319e-06
1.57753e-06
1.4965e-06
1.44415e-06
8.65837e-07
9.02085e-07
1.13198e-06
1.18127e-06
1.22442e-06
1.14663e-06
1.17669e-06
8.34752e-07
9.34442e-07
9.12074e-07
1.03107e-06
9.63846e-07
1.02306e-06
1.05298e-06
9.34031e-07
9.70851e-07
1.05286e-06
1.03517e-06
1.10285e-06
8.62862e-07
1.0273e-06
1.12959e-06
8.38188e-07
8.78603e-07
3.01797e-07
4.26235e-07
4.11893e-07
1.46896e-07
2.60529e-07
7.75134e-08
1.20906e-07
5.67429e-07
1.91613e-07
2.54279e-07
1.4983e-07
4.85336e-07
2.71994e-07
1.40768e-07
1.53768e-07
5.3389e-07
1.36654e-06
1.23215e-06
1.14946e-06
9.1596e-07
9.70896e-07
7.704e-07
1.01295e-06
6.57753e-07
7.43721e-07
6.65173e-07
5.8476e-07
5.97771e-07
8.12377e-07
7.52347e-07
1.2026e-07
1.48879e-07
9.05034e-08
3.81856e-07
1.77929e-07
6.42529e-07
5.39436e-07
9.13488e-07
8.21296e-07
7.05466e-07
7.88909e-07
9.31468e-07
5.9574e-07
7.75912e-07
8.21993e-07
8.79983e-07
4.42972e-07
3.86304e-07
2.20659e-07
2.26534e-07
2.31634e-07
2.55455e-07
4.04328e-07
5.43918e-07
5.99371e-07
6.65849e-07
1.88748e-07
7.45913e-07
2.86648e-07
3.59484e-07
6.77924e-07
3.34174e-07
6.69155e-07
8.43198e-07
6.07811e-07
7.20369e-07
6.71078e-07
2.85691e-07
2.55091e-07
4.95827e-07
5.43259e-07
3.61908e-07
5.90759e-07
4.10267e-07
4.62085e-07
3.89728e-07
4.31201e-07
4.96971e-07

CELL_DATA 234
VECTORS stress double
-1736.8 -5789.34 3958.9
-3801.65 -12672.2 6628.02
-2256.25 -7520.85 6060.6
-7193.25 -12144.1 3241.19
188.646 -17275.7 2153.09
-10270 -34233.3 7906.92
-5044.09 -16813.6 5812.52
-2113.9 -7046.35 4355.45
-6390.06 -27629.1 5084.28
479.211 1597.37 4813.27
1222.24 -13568 223.458
2156.3 7187.67 6346.68
-14664.5 -26585.7 -729.476
-3224.43 -23966.6 -5547.08
-8378.01 -21515.9 -2750.27
10873.1 -5169.65 4075.49
1227.91 -17.5027 3313.74
-296.88 -1128.87 2604.03
2167.91 -17722.1 -3537.87
-317.529 275.713 -3696.2
-9575.36 -7596.22 -2329.93
235.734 -1599.48 2235.83
-3173.86 -4230.95 1254.95
-4300.25 -3977.68 568.799
3851.07 -5011.01 2311.35
6847.14 -2901.19 -3161.48
12904.3 3504.88 6298.84
2234.41 -3912.32 4060.89
-6698.41 -4089.79 -6891.19
-5160.01 1500.59 907.961
11637.7 7557.6 3703.21
-4773.66 7709.78 211.144
-1024.38 11026.9 -1992.83
-1014.35 -6155.75 3805.87
-7944.04 -22277.5 -4703.06
-6341.55 -15318.5 5026.64
-4369.37 -14564.6 4369.41
-2826.93 -34385.2 3211.32
-3942.46 -18832.9 5128.96
-7699.06 -25663.5 6860.1
-3066.48 -11992.1 8614.86
2389.07 -8255.19 3870.29
-560.282 -983.529 -1575.37
3534.45 -6280.44 2978.72
-4791.6 -24099.3 2810.37
-2866.69 -3414.03 2159.54
-5112.28 4618.83 6560.61
-2592.99 -12221 -1779.95
-5331.73 -30693.6 -4165.58
-3535.7 -13556.2 6268
-6326.57 -15268.5 2595.22
-6157.13 -26485.9 -3879.42
-11681.9 -25592.7 994.065
5538.18 -20524.9 3227.94
15038.2 -327.067 -3380.03
-428.705 -25622.7 -5344.44
7363.41 -7386.87 6540.69
2065.81 -3486.68 2865.61
12309 -10155.6 -1243.29
2177.92 -6045.85 42.5233
-6446.43 -10022.7 -1067.94
32369.8 6637.65 -4421.6
1023.24 -17843.9 -2887.69
8506.49 4883.23 -13125.5
-14493.4 -5966.75 924.056
13569.4 -14080.1 -7463.13
-1937.24 -5606.33 2957.41
2727.84 -5465.4 -594.25
4484.18 563.689 -7538.67
-9709.62 908.856 -6208.95
-10584.2 -6984.6 -2400.5
96.3226 -5598.9 2011.21
22363.9 7152.86 -3048.68
10599.2 504.147 -1079.76
-12745.9 -8987.75 2596.32
9796.13 1239.8 6786.5
1833.55 -2218.22 8835.52
5336.13 -637.903 9943.46
-6527.35 -8961.98 834.853
7116.5 -526.933 1869.86
-3223.89 1122.77 -1094.19
-2290.77 5159.94 6078.27
625.2 -3202.7 10590.3
1863.13 -2516.95 4806.39
-1474.12 -8544.94 5235.25
-8181.04 -7618.29 -3726.8
11872.4 2286.6 5571.21
-1966.44 8564.19 3014.44
1029.83 -3038.2 3299.08
98.4614 -15890.6 2974.23
-1965.59 -691.789 832.934
-6347.84 2203.16 5759.54
-2069.98 2370.91 3912.01
-920.017 -3598.14 2581.08
6065.37 4487.64 -2901.93
6540.25 5010.67 7781.84
4896.37 -3414.98 3449.41
7453.85 -5822.96 6640.56
11247.6 -22119.8 -7313.9
7283.72 909.988 12596.1
11518.5 20539.7 4301.67
10935.1 6192.72 10309.2
-11176.9 -9595.62 1738.85
10625.9 2739.85 2822.67
23799.3 11937.5 7918.96
1003.01 -5437.72 10496.5
-9971.93 -4965.1 -164.792
-9028 -2022.19 4939.42
4595.56 -2455.38 1943.29
-14957 -5210.78 2462.2
13930.2 4957.18 4210.01
-9114 -6058.37 14427.3
11648.2 3486.5 -1101.43
-3081.87 1966.82 4244.94
2970.43 7516.17 4521.94
6836.59 -4191.56 -5191.69
-4368.79 -1932.29 16958.3
10454.3 3126.52 8401.46
-12907.5 -1992.31 -9839.14
4621.61 -14654.2 4852.85
-9100.53 -22386 -6542.82
10386.1 5835.44 -4019.73
-12822.9 -18707 -4970.88
-2653.65 3784.86 7820.79
1528.86 -15852.4 -602.75
10895.9 4579.17 2260.19
-3354.07 1905.97 3979.49
12377.2 -15980 -8217.41
16711.6 -7889.47 -3616.56
1465.54 -24400.7 5385.59
-6123.22 -8439.25 5399.1
4753.28 -14275.2 3057.66
1001.01 -13572.5 1910.66
-757.619 -13039 7229.88
-7724.08 -13483.9 4017.22
-1039.5 -25753.4 3917.53
-2100.74 -10929.9 5759.64
-13861.7 12925.9 5900.63
-1566.18 -16122.7 4907.77
7739.24 -13376.8 5784.74
3116.87 -11967.9 3395.34
-4392.14 -11194.3 4974.67
-6737.39 422.204 1048.61
-4900.95 -15777.9 2820.17
4369.7 -1309.81 1121.09
3518.36 -794.2 3138.59
-3522.81 -14202.6 2180.84
141.584 -1996.56 2314.31
-11515.4 1288.76 5977.01
-2135.17 -6558.64 6632.08
-4381.12 -11157.6 6854.77
-3896.27 -17924.3 4579.18
5914.79 -2518.35 4416.27
-929.124 -11892.1 6591.17
-858.233 -11655.8 3580.08
-410.962 -25833.3 4871.88
-6902.38 -27502.1 6451.48
2694.79 -18936.9 2835.02
-5559.5 -21361 2691.59
7596.8 -13312.7 5860.74
-4940.19 -22005.7 8713.01
-8073.14 -14939 7947
-675.203 -15648.2 5691.82
13054.1 -137.475 -596.858
-3239.26 -6971.04 758.44
-421.813 -6125.81 -1054.57
7184.62 -8224.82 -834.905
-15461.1 -8170.61 6090.41
-822.05 1906.62 4713.81
9253.94 8755.65 4502.35
-9587.97 -3216.99 3574.45
-9098.72 -2162.93 5322.03
4401.22 915.65 -922.22
-5309.15 -5492.78 4085.36
3671.29 -5536.28 5351.57
15622.7 4969.44 525.561
-1236.51 -6111.77 7741.1
-2626.82 -3298.31 7368.81
114.537 -12140.3 2514.7
13403.5 6144.28 -1042.44
476.984 1631.21 5339.06
-6087.38 -5167.86 2131.87
-12054.7 -6958.05 3223.09
-1246.61 -3598.66 3218.09
-9533.97 -2906.74 7670.47
-6475.25 -9350.53 8502.05
6497.04 6239.27 2551.02
10.6021 -15442.5 2132.15
-2985.49 -1335.21 10593.4
-12547.6 -15964.8 4026.87
-4084.32 -3491.48 5413.65
-10577.1 5621.35 4730.65
-9104.67 -1605.97 2754.4
-2243.87 -4771.59 3733.85
4529.56 -1806.54 3212.99
-1092.79 3678.19 -1200.13
-586.938 -4921.26 5941.34
-3147.45 -5617.28 5513.64
422.178 -2971.84 4206.88
-4439.81 -7385.04 3863.47
9639.06 5435.13 -686.73
2270.47 -4569.52 529.892
7797.95 -13572.3 3630.09
-14254.3 -14445.6 9016.48
-1137.51 -7382.88 6783.22
4903.85 -13958.2 5549.44
4319.44 -9358.51 4264.81
5592.43 1712.05 2234.15
-5138.5 -16402 9314.43
-16942.1 -16339.4 6918.4
-13991.9 -4733.04 4755.64
11234.9 10709.5 7637.1
-5165.23 -6755.56 -289.248
-3759.74 -9905.28 5302.48
8123.36 4668.1 11242.4
-4005.33 -9763.86 8354.04
-12674.6 232.754 5036.06
-15404.9 -11496.2 8396.55
-6274.76 -8023.28 5182.7
8729.78 1074.39 -703.218
-1210.26 3596.83 64.5074
-8201.69 -6453.05 3665.95
7802.43 2541.58 4041.47
-2889.44 2299.88 2164.81
6269.7 -17986.8 323.372
12324.5 2150.48 968.724
-14083.2 -16545 7095.19
16.0889 -12265.5 6457.81
-8874.01 -3497.42 5954.47
-9504.9 -4994.86 4859.38
-8569.52 4490.49 8812
-5763.35 -14783.6 4060.18
4737.61 -9091.47 7698.86
7466.8 3866.52 1793.02

SCALARS mises_stress double
LOOKUP_TABLE default
8573.03
16082.7
12445
11974.3
17766.6
33367.2
18019.1
9804.8
26555.5
8456.85
14223.9
12714.3
23099.3
24491.4
19379.3
15842.6
5871.31
4622.8
19868.1
6422.62
9640.5
4241.19
4389.82
4263.76
8675.58
10254.3
15893.5
8860.75
13291.6
6252.5
12072.3
10916.3
12076.9
8725.37
21184.3
15922.6
14995.2
33527.1
19362.1
25719.5
18414.3
11769.3
2859.29
10037.6
22626.4
4906.87
14149.4
11571.2
29307.5
16315.8
14027.2
24929.6
22258.6
24431
16292.5
27044.7
17074
6947.12
19603.3
7380.27
8990.1
30588.4
19045.4
23906.2
12717.8
27212.7
7110.69
7299.3
13725.6
14818.2
10206.4
6635.6
20475
10523.8
12202.6
14950.8
15701.9
18135.7
8155.76
8072.25
4343.44
12431
18684.6
9154.23
12034
10213.2
14565.4
11014.3
6787.63
16751.8
2250.27
12595.7
7792.64
5519.83
7414.32
14723.5
9383.65
16283.8
32016.8
22874.4
19325.7
20224.9
10900.5
10733.4
24757.5
19145.8
8640.68
11854.6
7054.15
13824.4
14238.8
26248.7
10529.2
8572.42
10214.4
13184.3
29616.3
17266.6
20863.4
19351.5
22553.3
11392.6
18671.6
14659.6
16702.1
10252.9
8293.62
28441.6
22640.8
26838.7
12020.4
17952.1
14482.9
17819.2
13628.7
26145.5
14157.5
25354.5
17589.8
21041.6
14994.4
13026.1
7191.25
14815.4
5504.9
6734.69
13355.1
4511.88
16008.7
12865.6
15354.7
18153
10711.3
16173
12846.8
26983.7
27185.3
21000.2
19753
20955.1
25053.8
18900
18219.4
13164
6183.27
6201.28
13433.2
17051.6
8516.94
11920
10476.8
12359.5
4327.89
8903.16
12262.6
13854.8
14529.3
13115.4
12952.3
11760.5
9360.93
6777.82
11875.1
6409.87
15752.5
16901.7
7754.12
15883.1
18530.3
16144.5
10125.9
16433.8
9675.35
7676.02
7933.05
4802.47
11294.8
10722.9
7959.79
9286.64
8454.43
6103.51
19758.1
21209.4
13617.6
19486.3
14185.5
6293.35
21712.3
20512.9
14825.6
17192.2
6137.93
12623.7
20713.1
16782.1
15483.4
20096.8
11575.1
8334.73
4332.15
9813.32
9823.82
5860.29
21815.6
11525.1
19750.7
16605.7
12896.2
11775.3
19105.9
14697.8
18055.2
7174.77

VECTORS deformation double
0 -2.63415e-08 5.14657e-08
0 -5.76583e-08 8.61642e-08
0 -3.42199e-08 7.87878e-08
-1.775e-08 -4.99308e-08 4.21355e-08
2.68568e-08 -8.66616e-08 2.79901e-08
0 -1.55761e-07 1.0279e-07
0 -7.6502e-08 7.55627e-08
0 -3.20609e-08 5.66208e-08
9.49328e-09 -1.2856e-07 6.60956e-08
0 7.26804e-09 6.25725e-08
2.64633e-08 -6.96735e-08 2.90495e-09
0 3.27039e-08 8.25069e-08
-3.34439e-08 -1.10932e-07 -9.48319e-09
1.98278e-08 -1.14997e-07 -7.2112e-08
-9.61626e-09 -9.50123e-08 -3.57535e-08
6.21197e-08 -4.21578e-08 5.29814e-08
6.16581e-09 -1.92938e-09 4.30787e-08
2.089e-10 -5.19901e-09 3.38524e-08
3.74226e-08 -9.18621e-08 -4.59923e-08
-2.00121e-09 1.85486e-09 -4.80506e-08
-3.64824e-08 -2.36181e-08 -3.02891e-08
3.5779e-09 -8.35102e-09 2.90657e-08
-9.52286e-09 -1.63939e-08 1.63143e-08
-1.55347e-08 -1.3438e-08 7.39439e-09
2.67719e-08 -3.08317e-08 3.00476e-08
3.85875e-08 -2.47767e-08 -4.10992e-08
5.92642e-08 -1.83204e-09 8.18849e-08
1.70405e-08 -2.29132e-08 5.27915e-08
-2.73574e-08 -1.04013e-08 -8.95855e-08
-2.80509e-08 1.5243e-08 1.18035e-08
4.6852e-08 2.03315e-08 4.81417e-08
-3.5433e-08 4.57094e-08 2.74487e-09
-2.16623e-08 5.66711e-08 -2.59068e-08
4.16187e-09 -2.92572e-08 4.94763e-08
-6.30399e-09 -9.94713e-08 -6.11398e-08
-8.73002e-09 -6.70801e-08 6.53463e-08
0 -6.62688e-08 5.68023e-08
3.74431e-08 -1.67685e-07 4.17471e-08
8.53704e-09 -8.82507e-08 6.66765e-08
0 -1.16769e-07 8.91813e-08
2.65577e-09 -5.53609e-08 1.11993e-07
2.43281e-08 -4.48596e-08 5.03137e-08
-1.32611e-09 -4.07722e-09 -2.04798e-08
2.70929e-08 -3.67039e-08 3.87233e-08
1.21909e-08 -1.13309e-07 3.65348e-08
-9.21239e-09 -1.27701e-08 2.8074e-08
-3.24897e-08 3.07626e-08 8.52879e-08
5.36651e-09 -5.72154e-08 -2.31393e-08
1.93818e-08 -1.4547e-07 -5.41525e-08
2.65577e-09 -6.24773e-08 8.1484e-08
-8.73002e-09 -6.68529e-08 3.37379e-08
8.94312e-09 -1.23194e-07 -5.04325e-08
-2.00204e-08 -1.10441e-07 1.29228e-08
5.84783e-08 -1.10932e-07 4.19632e-08
7.56814e-08 -2.41926e-08 -4.39404e-08
3.62906e-08 -1.27471e-07 -6.94777e-08
4.78973e-08 -4.79795e-08 8.5029e-08
1.55591e-08 -2.05321e-08 3.7253e-08
7.67785e-08 -6.92415e-08 -1.61628e-08
1.99583e-08 -3.34961e-08 5.52802e-10
-1.71981e-08 -4.04439e-08 -1.38832e-08
1.51892e-07 -1.53664e-08 -5.74807e-08
3.18821e-08 -9.07546e-08 -3.75399e-08
3.52076e-08 1.16564e-08 -1.70632e-07
-6.35168e-08 -8.09365e-09 1.20127e-08
8.89671e-08 -9.07545e-08 -9.70207e-08
-1.2767e-09 -2.51258e-08 3.84464e-08
2.18373e-08 -3.14188e-08 -7.72525e-09
2.15754e-08 -3.90783e-09 -9.80027e-08
-4.99114e-08 1.91087e-08 -8.07163e-08
-4.24439e-08 -1.90468e-08 -3.12065e-08
8.87997e-09 -2.8139e-08 2.61457e-08
1.0109e-07 2.21848e-09 -3.96328e-08
5.22396e-08 -1.3378e-08 -1.40369e-08
-5.02479e-08 -2.58199e-08 3.37522e-08
4.71209e-08 -8.49519e-09 8.82245e-08
1.24951e-08 -1.38414e-08 1.14862e-07
2.76375e-08 -1.11937e-08 1.29265e-07
-1.91937e-08 -3.50189e-08 1.08531e-08
3.63729e-08 -1.33094e-08 2.43082e-08
-1.78036e-08 1.04497e-08 -1.42244e-08
-1.91937e-08 2.92359e-08 7.90175e-08
7.93005e-09 -1.69513e-08 1.37674e-07
1.30911e-08 -1.53795e-08 6.24831e-08
5.44679e-09 -4.05135e-08 6.80582e-08
-2.94777e-08 -2.58199e-08 -4.84483e-08
5.59323e-08 -6.37564e-09 7.24258e-08
-2.26785e-08 4.57706e-08 3.91877e-08
9.70647e-09 -1.67357e-08 4.28881e-08
2.43282e-08 -7.96006e-08 3.8665e-08
-8.79029e-09 -5.10553e-10 1.08281e-08
-3.50439e-08 2.05376e-08 7.4874e-08
-1.39063e-08 1.49595e-08 5.08561e-08
7.97122e-10 -1.66107e-08 3.3554e-08
2.35954e-08 1.33402e-08 -3.77251e-08
2.51853e-08 1.5243e-08 1.01164e-07
2.96043e-08 -2.44195e-08 4.48424e-08
4.60037e-08 -4.02956e-08 8.63272e-08
8.9418e-08 -1.27471e-07 -9.50807e-08
3.50536e-08 -6.37564e-09 1.63749e-07
2.67827e-08 8.54209e-08 5.59217e-08
4.53864e-08 1.45609e-08 1.34019e-07
-4.14913e-08 -3.12127e-08 2.26051e-08
4.90197e-08 -2.23961e-09 3.66947e-08
1.0109e-07 2.39884e-08 1.02946e-07
1.31716e-08 -2.86931e-08 1.36455e-07
-4.2412e-08 -9.86763e-09 -2.14229e-09
-4.21067e-08 3.43105e-09 6.42125e-08
2.66609e-08 -1.91702e-08 2.52628e-08
-6.69687e-08 -3.61842e-09 3.20086e-08
6.22154e-08 3.89056e-09 5.47302e-08
-3.64824e-08 -1.66209e-08 1.87555e-07
5.30111e-08 -3.97858e-11 -1.43186e-08
-1.83596e-08 1.44569e-08 5.51842e-08
3.5779e-09 3.31252e-08 5.87853e-08
4.04703e-08 -3.12127e-08 -6.7492e-08
-1.89455e-08 -3.10825e-09 2.20458e-07
4.75816e-08 -4.88001e-11 1.09219e-07
-6.15491e-08 9.39976e-09 -1.27909e-07
4.50894e-08 -8.02035e-08 6.30871e-08
-1.19236e-08 -9.82792e-08 -8.50566e-08
4.31776e-08 1.3598e-08 -5.22565e-08
-3.60541e-08 -7.43006e-08 -6.46215e-08
-1.89455e-08 2.29048e-08 1.0167e-07
3.14229e-08 -8.15552e-08 -7.83575e-09
4.7611e-08 6.55194e-09 2.93825e-08
-1.96293e-08 1.45609e-08 5.17333e-08
8.58562e-08 -9.84659e-08 -1.06826e-07
9.53922e-08 -6.45148e-08 -4.70152e-08
4.39288e-08 -1.24202e-07 7.00127e-08
-1.79572e-08 -3.30114e-08 7.01883e-08
4.51793e-08 -7.85061e-08 3.97496e-08
2.53639e-08 -6.93643e-08 2.48385e-08
1.57704e-08 -6.40587e-08 9.39885e-08
-1.83945e-08 -5.58335e-08 5.22238e-08
3.34326e-08 -1.27208e-07 5.09279e-08
5.8911e-09 -5.14983e-08 7.48753e-08
-8.86973e-08 8.54221e-08 7.67081e-08
1.63532e-08 -7.82643e-08 6.38011e-08
5.87614e-08 -7.84927e-08 7.52016e-08
3.35362e-08 -6.45148e-08 4.41395e-08
-5.16918e-09 -4.93835e-08 6.46707e-08
-3.43203e-08 1.22171e-08 1.3632e-08
-8.37872e-10 -7.15382e-08 3.66622e-08
2.38132e-08 -1.31036e-08 1.45742e-08
1.87831e-08 -9.24853e-09 4.08016e-08
3.68988e-09 -6.57288e-08 2.83509e-08
3.70275e-09 -1.01952e-08 3.00861e-08
-5.95099e-08 2.37168e-08 7.77011e-08
-8.37872e-10 -2.95904e-08 8.62171e-08
-5.16918e-09 -4.92163e-08 8.91121e-08
7.40511e-09 -8.37772e-08 5.95294e-08
3.33515e-08 -2.14639e-08 5.74115e-08
1.31925e-08 -5.80666e-08 8.56851e-08
1.31925e-08 -5.69914e-08 4.65411e-08
3.66952e-08 -1.2855e-07 6.33344e-08
6.7412e-09 -1.27157e-07 8.38693e-08
4.18792e-08 -9.87265e-08 3.68552e-08
4.24407e-09 -9.84659e-08 3.49907e-08
5.79531e-08 -7.79587e-08 7.61897e-08
8.30755e-09 -1.02618e-07 1.13269e-07
-1.79572e-08 -6.25852e-08 1.03311e-07
2.00963e-08 -7.72283e-08 7.39937e-08
6.54767e-08 -2.02685e-08 -7.75916e-09
-5.73976e-09 -2.99963e-08 9.85972e-09
7.07965e-09 -2.99963e-08 -1.37095e-08
4.82603e-08 -5.1901e-08 -1.08538e-08
-6.50496e-08 -1.76614e-08 7.91754e-08
-6.97019e-09 1.07662e-08 6.12795e-08
3.31362e-08 2.98973e-08 5.85305e-08
-4.31144e-08 -1.703e-09 4.64678e-08
-4.22492e-08 2.83342e-09 6.91864e-08
2.06326e-08 -2.02358e-09 -1.19889e-08
-1.83066e-08 -1.95002e-08 5.31097e-08
2.66609e-08 -3.31883e-08 6.95704e-08
7.06594e-08 1.41313e-09 6.83229e-09
2.98513e-09 -2.87041e-08 1.00634e-07
-8.18665e-09 -1.25513e-08 9.57945e-08
1.87831e-08 -6.08732e-08 3.26911e-08
5.78009e-08 1.06162e-08 -1.35517e-08
-6.18883e-11 7.44055e-09 6.94078e-08
-2.26851e-08 -1.67082e-08 2.77143e-08
-4.98363e-08 -1.67082e-08 4.19002e-08
-8.35087e-10 -1.61234e-08 4.18351e-08
-4.33097e-08 -2.32771e-10 9.97161e-08
-1.83504e-08 -3.70398e-08 1.10527e-07
2.31263e-08 2.14508e-08 3.31632e-08
2.32167e-08 -7.72283e-08 2.77179e-08
-1.29247e-08 -2.19781e-09 1.37715e-07
-3.87906e-08 -6.10026e-08 5.23493e-08
-1.51844e-08 -1.13309e-08 7.03775e-08
-6.13173e-08 4.39723e-08 6.14985e-08
-4.31144e-08 5.62713e-09 3.58072e-08
-4.06195e-09 -2.04922e-08 4.85401e-08
2.53576e-08 -1.5827e-08 4.17688e-08
-1.09812e-08 2.00301e-08 -1.56017e-08
4.4472e-09 -2.37259e-08 7.72374e-08
-7.31131e-09 -2.33652e-08 7.16773e-08
6.56865e-09 -1.54925e-08 5.46894e-08
-1.11215e-08 -3.02655e-08 5.02251e-08
4.00426e-08 1.2717e-08 -8.92749e-09
1.82066e-08 -2.62533e-08 6.8886e-09
5.93482e-08 -7.95584e-08 4.71911e-08
-4.96028e-08 -5.08468e-08 1.17214e-07
5.38677e-09 -3.52081e-08 8.81818e-08
4.54566e-08 -7.71468e-08 7.21427e-08
3.5635e-08 -5.32717e-08 5.54426e-08
2.53941e-08 1.71582e-10 2.9044e-08
-1.08947e-09 -7.43023e-08 1.21088e-07
-6.02016e-08 -5.62836e-08 8.99392e-08
-6.28598e-08 -2.67738e-09 6.18234e-08
4.01101e-08 3.66953e-08 9.92822e-08
-1.56928e-08 -2.60299e-08 -3.76023e-09
-3.94078e-09 -4.38868e-08 6.89323e-08
3.36147e-08 1.11555e-08 1.46151e-07
-5.38085e-09 -4.28113e-08 1.08603e-07
-6.3722e-08 2.01756e-08 6.54688e-08
-5.978e-08 -3.43736e-08 1.09155e-07
-1.93389e-08 -3.07043e-08 6.73751e-08
4.20373e-08 -7.72272e-09 -9.14184e-09
-1.14466e-08 1.97995e-08 8.38597e-10
-3.13289e-08 -1.99627e-08 4.76573e-08
3.51998e-08 1.00426e-09 5.25391e-08
-1.7897e-08 1.58336e-08 2.81426e-08
5.83287e-08 -9.93386e-08 4.20384e-09
5.83966e-08 -7.73427e-09 1.25934e-08
-4.55983e-08 -6.16003e-08 9.22374e-08
1.84788e-08 -6.13518e-08 8.39515e-08
-3.91239e-08 -4.1761e-09 7.74082e-08
-4.00322e-08 -1.07169e-08 6.31719e-08
-4.95833e-08 3.53067e-08 1.14556e-07
-6.6413e-09 -6.52732e-08 5.27824e-08
3.73253e-08 -5.25637e-08 1.00085e-07
3.15342e-08 8.1324e-09 2.33093e-08

SCALARS mises_deformation double
LOOKUP_TABLE default
9.29518e-08
1.59992e-07
1.4069e-07
8.51357e-08
1.13619e-07
2.36556e-07
1.51597e-07
1.03178e-07
1.7591e-07
1.08622e-07
8.61615e-08
1.466e-07
9.99209e-08
1.77476e-07
1.09732e-07
1.29136e-07
7.4973e-08
5.88737e-08
1.40081e-07
8.3293e-08
6.14771e-08
5.14477e-08
3.16512e-08
1.94212e-08
7.21201e-08
9.01464e-08
1.54077e-07
9.78094e-08
1.56999e-07
4.31827e-08
9.27836e-08
7.06192e-08
8.31984e-08
9.1317e-08
1.43253e-07
1.29618e-07
1.18621e-07
2.02552e-07
1.48161e-07
1.93636e-07
2.02105e-07
1.06254e-07
3.56545e-08
8.70293e-08
1.35548e-07
4.99475e-08
1.57555e-07
7.222e-08
1.82083e-07
1.54904e-07
8.58873e-08
1.54883e-07
1.04345e-07
1.65817e-07
1.18052e-07
1.91503e-07
1.69068e-07
7.17389e-08
1.29573e-07
4.6795e-08
4.25929e-08
1.88556e-07
1.27961e-07
2.97171e-07
6.33935e-08
2.29052e-07
7.09594e-08
4.82612e-08
1.71402e-07
1.52825e-07
6.54016e-08
5.63145e-08
1.21294e-07
6.47913e-08
7.28818e-08
1.6138e-07
2.00251e-07
2.26554e-07
3.57204e-08
6.12935e-08
3.49172e-08
1.43233e-07
2.39472e-07
1.11003e-07
1.25648e-07
8.84094e-08
1.38788e-07
9.08532e-08
7.78133e-08
1.1554e-07
2.06104e-08
1.3852e-07
9.15655e-08
6.05591e-08
6.84799e-08
1.76593e-07
9.07092e-08
1.67186e-07
2.50527e-07
2.86242e-07
1.22914e-07
2.35573e-07
5.41634e-08
8.09767e-08
2.00409e-07
2.39237e-07
3.86188e-08
1.19578e-07
5.91948e-08
8.56109e-08
1.12383e-07
3.26392e-07
5.85436e-08
9.97366e-08
1.06577e-07
1.32442e-07
3.82249e-07
1.95071e-07
2.31381e-07
1.5499e-07
1.74164e-07
9.82563e-08
1.2911e-07
1.798e-07
1.0191e-07
6.77331e-08
9.44042e-08
2.44451e-07
1.61392e-07
1.93694e-07
1.24894e-07
1.28418e-07
9.52099e-08
1.78505e-07
1.03008e-07
1.7127e-07
1.40745e-07
2.00981e-07
1.41012e-07
1.76613e-07
1.15305e-07
1.21479e-07
4.79992e-08
9.53458e-08
4.10857e-08
7.48757e-08
8.35927e-08
5.35809e-08
1.53713e-07
1.52157e-07
1.61299e-07
1.3537e-07
1.1035e-07
1.62289e-07
1.03306e-07
1.86072e-07
1.95381e-07
1.40393e-07
1.17493e-07
1.77112e-07
2.23476e-07
1.87443e-07
1.5603e-07
7.87765e-08
3.24375e-08
4.15465e-08
8.87747e-08
1.48999e-07
1.07262e-07
1.06201e-07
9.0918e-08
1.27566e-07
3.00458e-08
9.39167e-08
1.31214e-07
7.09573e-08
1.76919e-07
1.66288e-07
9.16945e-08
5.8232e-08
1.2045e-07
5.2144e-08
8.48352e-08
7.41466e-08
1.78033e-07
1.94107e-07
6.16302e-08
1.02961e-07
2.38829e-07
1.05267e-07
1.22662e-07
1.40484e-07
7.73278e-08
8.61488e-08
8.08007e-08
3.83665e-08
1.36327e-07
1.25863e-07
9.67353e-08
9.09438e-08
3.86654e-08
4.051e-08
1.45789e-07
2.09144e-07
1.57437e-07
1.64738e-07
1.23401e-07
5.63133e-08
2.22323e-07
1.66346e-07
1.23518e-07
1.76223e-07
2.36169e-08
1.26584e-07
2.54872e-07
1.92393e-07
1.36425e-07
1.96074e-07
1.19755e-07
4.90116e-08
2.74188e-08
8.69957e-08
9.73948e-08
5.68365e-08
1.38267e-07
6.6313e-08
1.6908e-07
1.62428e-07
1.39143e-07
1.15154e-07
2.11719e-07
1.10585e-07
1.90182e-07
4.93362e-08
