# vtk DataFile Version 1.0
results.vtk  2D Unstructured Grid of Linear Triangles
ASCII

DATASET UNSTRUCTURED_GRID
POINTS 138 double
2 5 0
2.56465 4.10576 0
3 5 0
0 5 0
0.5 4.17653 0
1 5 0
-2 5 0
-1.5 4.17653 0
-1 5 0
-2.56465 4.10576 0
-3.62383 4.13213 0
-3 5 0
-5 5 0
-5 4 0
-4 5 0
-0.5 4.17653 0
1.5 4.17653 0
3.62382 4.13215 0
4 5 0
-4.16814 2.5042 0
-4.18189 3.48032 0
-5 3 0
5 4 0
5 5 0
-4.17653 0.5 0
-4.17653 1.5 0
-5 1 0
-5 -2 0
-4.17653 -1.5 0
-5 -1 0
-4.10576 -2.56465 0
-4.13213 -3.62383 0
-5 -3 0
-5 -5 0
-4 -5 0
-5 -4 0
-4.17653 -0.5 0
-5 0 0
-1.5 -4.17653 0
-2.5042 -4.16814 0
-2 -5 0
-0.5 -4.17653 0
-1 -5 0
0.5 -2.5296 0
0 -3.35307 0
1 -3.35307 0
4 -5 0
3.48905 -4.14984 0
3 -5 0
5 -5 0
5 -4 0
2.54488 -4.11111 0
2 -5 0
1.5 -4.17653 0
1 -5 0
4.1615 -3.61779 0
0.5 -4.17653 0
0 -5 0
4.15489 -2.53368 0
5 -3 0
4.17653 1.5 0
4.17653 0.5 0
5 1 0
4.16896 2.50425 0
3.35301 2.00914 0
4.18188 3.48066 0
5 3 0
-5 2 0
-3.23639 3.12084 0
-2.5296 2.5 0
-2.05166 3.33295 0
5 0 0
5 2 0
-1 3.35307 0
0 3.35307 0
-3.35307 1 0
-3 -5 0
-3.48032 -4.18189 0
-3.12084 -3.23639 0
-2.5 -2.5296 0
-3.33295 -2.05166 0
-3.35307 -1 0
-2.00865 -3.35344 0
4.17653 -1.5 0
5 -2 0
5 -1 0
3.35307 -1 0
4.17653 -0.5 0
3.2341 -3.12605 0
3.35338 -2.0089 0
2.05166 3.33295 0
1 3.35307 0
3.23615 3.12056 0
3.35307 1 0
2.5296 2.5 0
-3.35307 0 0
3.35307 0 0
2.05152 -3.33266 0
2.5296 -2.5 0
1.89472 -1.765 0
1.5 -2.5296 0
-1 -3.35307 0
2.5296 -0.5 0
-2.5296 -1.5 0
-0.5 -2.5296 0
-1.47277 -2.58286 0
2.5296 0.5 0
-3.35345 2.00866 0
-0.5 2.5296 0
0.5 2.5296 0
-1.5 2.5296 0
2.57783 1.46973 0
-2.58313 1.47291 0
-2.5296 0.5 0
1.5904 -0.910619 0
2.57841 -1.47013 0
1.5 2.5296 0
-0.963273 -1.6484 0
-1 1.70613 0
-1.89965 1.78046 0
-2.5296 -0.5 0
-0.0131666 1.68391 0
-1.70613 -1 0
-1.77994 -1.89965 0
0.441861 -0.845801 0
-0.0529632 -1.61558 0
1 -1.70613 0
1 1.70613 0
1.89386 1.76312 0
1.73376 -0.00222283 0
-1.60332 0.0358645 0
1.59563 0.902467 0
-0.766044 -0.543898 0
-0.622686 0.73565 0
0.898033 -0.0177889 0
-1.65454 0.96346 0
0.511437 0.883334 0
-0.0232713 0.0479891 0
CELLS 234 936
3 0 1 2
3 3 4 5
3 6 7 8
3 9 7 6
3 10 9 11
3 12 13 14
3 15 3 8
3 16 0 5
3 10 14 13
3 17 18 2
3 19 20 21
3 22 23 18
3 24 25 26
3 27 28 29
3 30 28 27
3 31 30 32
3 33 34 35
3 31 35 34
3 36 37 29
3 38 39 40
3 41 38 42
3 43 44 45
3 46 47 48
3 49 50 46
3 51 52 48
3 53 54 52
3 55 47 46
3 56 57 54
3 58 55 59
3 60 61 62
3 63 64 60
3 22 65 66
3 22 17 65
3 16 1 0
3 25 67 26
3 15 4 3
3 9 6 11
3 20 13 21
3 68 69 70
3 10 11 14
3 15 8 7
3 16 5 4
3 61 71 62
3 68 9 10
3 10 13 20
3 17 2 1
3 63 72 66
3 20 68 10
3 19 21 67
3 73 15 7
3 74 4 15
3 25 19 67
3 24 26 37
3 24 75 25
3 39 76 40
3 36 24 37
3 30 27 32
3 77 34 76
3 78 79 80
3 31 32 35
3 78 30 31
3 31 34 77
3 36 29 28
3 78 31 77
3 39 77 76
3 81 36 28
3 38 82 39
3 38 40 42
3 41 42 57
3 55 50 59
3 83 84 85
3 51 48 47
3 56 41 57
3 53 52 51
3 86 83 87
3 87 85 71
3 88 51 47
3 47 55 88
3 56 54 53
3 58 59 84
3 55 46 50
3 45 56 53
3 83 89 58
3 83 58 84
3 90 1 16
3 87 83 85
3 61 87 71
3 60 62 72
3 63 66 65
3 91 16 4
3 92 17 1
3 63 60 72
3 22 18 17
3 65 92 63
3 92 65 17
3 93 61 60
3 94 92 90
3 64 63 92
3 95 24 36
3 96 87 61
3 93 60 64
3 96 61 93
3 86 87 96
3 97 53 51
3 44 41 56
3 89 83 86
3 88 55 58
3 98 99 100
3 100 43 45
3 88 58 89
3 97 51 88
3 101 38 41
3 98 88 89
3 97 45 53
3 44 56 45
3 102 86 96
3 101 41 44
3 82 38 101
3 78 77 39
3 103 81 80
3 80 28 30
3 78 39 82
3 80 30 78
3 104 101 44
3 81 28 80
3 105 82 101
3 106 96 93
3 95 36 81
3 75 24 95
3 107 19 25
3 108 109 74
3 107 25 75
3 68 20 19
3 110 73 70
3 70 7 9
3 68 19 107
3 70 9 68
3 111 93 64
3 73 7 70
3 112 107 75
3 113 75 95
3 74 15 73
3 102 114 115
3 91 4 74
3 90 92 1
3 91 109 116
3 90 16 91
3 90 91 116
3 111 64 94
3 109 91 74
3 108 74 73
3 110 70 69
3 117 105 104
3 110 108 73
3 110 118 108
3 69 68 107
3 69 119 110
3 112 69 107
3 120 95 81
3 113 112 75
3 69 112 119
3 121 109 108
3 120 113 95
3 103 80 79
3 103 120 81
3 103 122 120
3 79 78 82
3 79 123 103
3 105 79 82
3 104 105 101
3 43 104 44
3 100 97 98
3 124 125 126
3 100 45 97
3 100 126 43
3 98 97 88
3 115 89 86
3 115 98 89
3 127 116 109
3 102 115 86
3 128 94 116
3 106 102 96
3 106 129 102
3 94 90 116
3 111 106 93
3 94 64 92
3 128 111 94
3 130 113 120
3 131 106 111
3 129 106 131
3 98 115 99
3 114 102 129
3 125 104 43
3 99 115 114
3 125 43 126
3 79 105 123
3 132 133 130
3 114 134 124
3 117 104 125
3 132 130 122
3 123 105 117
3 130 120 122
3 135 112 113
3 131 134 129
3 132 117 125
3 135 113 130
3 121 127 109
3 119 112 135
3 133 135 130
3 121 108 118
3 121 133 136
3 127 136 131
3 127 128 116
3 132 125 124
3 136 127 121
3 133 118 135
3 133 137 136
3 133 121 118
3 132 122 117
3 131 136 134
3 124 126 114
3 137 133 132
3 128 131 111
3 128 127 131
3 119 118 110
3 119 135 118
3 123 122 103
3 123 117 122
3 99 126 100
3 99 114 126
3 114 129 134
3 137 132 124
3 134 137 124
3 134 136 137
CELL_TYPES 234
5
5
5
5
5
5
5
5
5
5
5
5
5
5
5
5
5
5
5
5
5
5
5
5
5
5
5
5
5
5
5
5
5
5
5
5
5
5
5
5
5
5
5
5
5
5
5
5
5
5
5
5
5
5
5
5
5
5
5
5
5
5
5
5
5
5
5
5
5
5
5
5
5
5
5
5
5
5
5
5
5
5
5
5
5
5
5
5
5
5
5
5
5
5
5
5
5
5
5
5
5
5
5
5
5
5
5
5
5
5
5
5
5
5
5
5
5
5
5
5
5
5
5
5
5
5
5
5
5
5
5
5
5
5
5
5
5
5
5
5
5
5
5
5
5
5
5
5
5
5
5
5
5
5
5
5
5
5
5
5
5
5
5
5
5
5
5
5
5
5
5
5
5
5
5
5
5
5
5
5
5
5
5
5
5
5
5
5
5
5
5
5
5
5
5
5
5
5
5
5
5
5
5
5
5
5
5
5
5
5
5
5
5
5
5
5
5
5
5
5
5
5
5
5
5
5
5
5
5
5
5
5
5
5

POINT_DATA 138
VECTORS displacements double
-5.23658e-14 -5.23658e-14 0.0
-0.000106506 -0.00043963 0.0
-5.23658e-14 -5.23658e-14 0.0
-5.23658e-14 -5.23658e-14 0.0
-1.68456e-05 -0.000392726 0.0
-5.23658e-14 -5.23658e-14 0.0
-5.23658e-14 -5.23658e-14 0.0
5.33977e-05 -0.000395791 0.0
-5.23658e-14 -5.23658e-14 0.0
0.00010667 -0.000439734 0.0
0.000173787 -0.000445096 0.0
-5.23658e-14 -5.23658e-14 0.0
-5.23658e-14 -5.23658e-14 0.0
0.000352986 -0.000616276 0.0
-5.23658e-14 -5.23658e-14 0.0
1.712e-05 -0.000392766 0.0
-5.31741e-05 -0.000395829 0.0
-0.000173565 -0.000444933 0.0
-5.23658e-14 -5.23658e-14 0.0
0.0004763 -0.00137703 0.0
0.00034447 -0.000839281 0.0
0.000546651 -0.00118652 0.0
-0.000352679 -0.000615951 0.0
-5.23658e-14 -5.23658e-14 0.0
0.000584687 -0.00248752 0.0
0.000552485 -0.00193177 0.0
0.000706331 -0.00225253 0.0
0.000756346 -0.00401776 0.0
0.00059858 -0.00363716 0.0
0.000739919 -0.00338847 0.0
0.0006119 -0.00426869 0.0
0.000707508 -0.0049128 0.0
0.000804035 -0.00470956 0.0
0.00148697 -0.00644288 0.0
0.00111452 -0.00564854 0.0
0.000961893 -0.00551537 0.0
0.000594266 -0.00305428 0.0
0.000729596 -0.00280517 0.0
0.000328906 -0.00472915 0.0
0.000542329 -0.00483093 0.0
0.000534314 -0.00520775 0.0
0.000110724 -0.00468277 0.0
0.000264124 -0.00513323 0.0
-7.56284e-05 -0.00384602 0.0
9.72646e-07 -0.00425528 0.0
-0.000178686 -0.00427849 0.0
-0.00111096 -0.00564798 0.0
-0.000731461 -0.00501199 0.0
-0.000813623 -0.00535331 0.0
-0.00148401 -0.00644436 0.0
-0.000958873 -0.00551741 0.0
-0.000539669 -0.00480805 0.0
-0.000533382 -0.00520844 0.0
-0.000326008 -0.00472928 0.0
-0.00026222 -0.00513314 0.0
-0.000708215 -0.00491918 0.0
-0.000108513 -0.00468285 0.0
1.01821e-06 -0.00511044 0.0
-0.000615297 -0.00425706 0.0
-0.000801051 -0.00470839 0.0
-0.000551631 -0.00193119 0.0
-0.000583833 -0.00248682 0.0
-0.000705438 -0.00225168 0.0
-0.000475746 -0.00137661 0.0
-0.000395676 -0.00159561 0.0
-0.000343989 -0.000838783 0.0
-0.000546074 -0.001186 0.0
0.000652216 -0.00171884 0.0
0.000279574 -0.000974782 0.0
0.000251057 -0.00128452 0.0
0.000145284 -0.000828404 0.0
-0.00072856 -0.00280398 0.0
-0.000651426 -0.00171813 0.0
6.6438e-05 -0.000805225 0.0
2.68029e-07 -0.000801236 0.0
0.000442235 -0.00215518 0.0
0.000817283 -0.00535383 0.0
0.000741133 -0.005028 0.0
0.000511557 -0.00445365 0.0
0.000373971 -0.00399345 0.0
0.000471625 -0.00384994 0.0
0.000463106 -0.00326744 0.0
0.000354581 -0.00435274 0.0
-0.000597151 -0.0036367 0.0
-0.000754519 -0.0040142 0.0
-0.000738741 -0.00338665 0.0
-0.000461419 -0.00326698 0.0
-0.000593215 -0.00305343 0.0
-0.000513881 -0.00441631 0.0
-0.000471914 -0.00382865 0.0
-0.000144884 -0.00082834 0.0
-6.60024e-05 -0.000805283 0.0
-0.000279041 -0.000974578 0.0
-0.000441258 -0.00215476 0.0
-0.000250337 -0.0012842 0.0
0.00045861 -0.00271043 0.0
-0.000457768 -0.00271012 0.0
-0.000358518 -0.0043464 0.0
-0.000372873 -0.00398301 0.0
-0.000261498 -0.00353729 0.0
-0.000227385 -0.00389295 0.0
0.000180531 -0.00427799 0.0
-0.000337254 -0.00292049 0.0
0.000345897 -0.00345661 0.0
7.8404e-05 -0.00384551 0.0
0.000227592 -0.0039171 0.0
-0.000328707 -0.00237635 0.0
0.000396662 -0.00159636 0.0
4.55197e-05 -0.0012248 0.0
-4.47235e-05 -0.00122506 0.0
0.000139557 -0.00123817 0.0
-0.000312337 -0.00184971 0.0
0.000314139 -0.00184866 0.0
0.000329798 -0.00237671 0.0
-0.000208182 -0.00306969 0.0
-0.000350111 -0.00344551 0.0
-0.000138923 -0.00123821 0.0
0.000133606 -0.00341662 0.0
0.000109403 -0.00166269 0.0
0.000212179 -0.00164901 0.0
0.000338026 -0.0029196 0.0
1.70599e-06 -0.00166514 0.0
0.000226999 -0.00312411 0.0
0.000250932 -0.00359589 0.0
-5.62818e-05 -0.00298954 0.0
8.63193e-06 -0.00337939 0.0
-0.000137078 -0.00344769 0.0
-0.000108366 -0.00166331 0.0
-0.000211099 -0.00165775 0.0
-0.000222907 -0.00259955 0.0
0.000205774 -0.00257169 0.0
-0.000194247 -0.00210835 0.0
9.97372e-05 -0.0028417 0.0
7.56887e-05 -0.00216807 0.0
-0.000112645 -0.00257289 0.0
0.000202313 -0.00207869 0.0
-6.06228e-05 -0.00208977 0.0
2.73675e-06 -0.0025256 0.0

SCALARS summary double
LOOKUP_TABLE default
7.40564e-14
0.000452348
7.40564e-14
7.40564e-14
0.000393087
7.40564e-14
7.40564e-14
0.000399377
7.40564e-14
0.000452487
0.00047782
7.40564e-14
7.40564e-14
0.000710208
7.40564e-14
0.000393139
0.000399385
0.000477588
7.40564e-14
0.00145708
0.000907223
0.00130639
0.000709773
7.40564e-14
0.00255531
0.00200922
0.00236067
0.00408833
0.00368609
0.00346831
0.00431232
0.00496348
0.0047777
0.00661224
0.00575744
0.00559862
0.00311156
0.0028985
0.00474058
0.00486128
0.00523509
0.00468408
0.00514002
0.00384676
0.00425528
0.00428222
0.00575621
0.00506508
0.00541479
0.00661302
0.00560011
0.00483825
0.00523568
0.0047405
0.00513983
0.0049699
0.00468411
0.00511044
0.0043013
0.00477605
0.00200843
0.00255444
0.0023596
0.0014565
0.00164394
0.000906579
0.00130568
0.00183842
0.00101408
0.00130882
0.000841047
0.00289709
0.00183748
0.000807962
0.000801236
0.00220008
0.00541585
0.00508233
0.00448294
0.00401092
0.00387872
0.00330009
0.00436716
0.0036854
0.00408449
0.00346629
0.00329941
0.00311052
0.00444611
0.00385762
0.000840915
0.000807983
0.00101374
0.00219947
0.00130837
0.00274895
0.00274851
0.00436117
0.00400043
0.00354694
0.00389959
0.00428179
0.00293989
0.00347388
0.00384631
0.0039237
0.00239898
0.00164491
0.00122565
0.00122588
0.00124601
0.00187589
0.00187516
0.00239948
0.00307674
0.00346325
0.00124598
0.00341923
0.00166629
0.0016626
0.0029391
0.00166514
0.00313234
0.00360463
0.00299007
0.0033794
0.00345042
0.00166683
0.00167113
0.00260909
0.00257991
0.00211728
0.00284345
0.00216939
0.00257536
0.00208851
0.00209065
0.0025256

CELL_DATA 234
VECTORS stress double
0.324148 1.08049 0.0916171
0.31445 1.04817 0.0157361
0.316904 1.05635 -0.0498806
0.223893 1.03933 -0.0635144
0.182265 1.05522 -0.103431
0.406336 1.35445 -0.271528
0.314482 1.04827 -0.0159924
0.316935 1.05645 0.0496717
0.12458 1.12564 -0.134066
0.338033 1.12678 0.153841
-0.00168726 1.10413 -0.0286417
0.406122 1.35374 0.271291
-0.00120732 1.11113 0.0152873
0.0157698 1.26332 0.0489706
0.00671566 1.2014 0.0567645
0.0174446 1.21155 0.0872409
-0.207034 1.79291 0.207124
0.0326317 1.16433 0.102414
0.00962853 1.16949 0.0317948
-0.128402 0.995542 -0.0108606
-0.137413 0.996506 -0.00571331
-0.0578727 1.00481 -0.00549731
-0.277005 1.05889 -0.0207563
-0.208716 1.79127 -0.208646
-0.260375 1.00036 0.0152561
-0.242449 0.999576 0.00914523
-0.103227 1.09546 0.00692188
-0.227097 0.997936 0.003169
0.0214806 1.22552 -0.0869655
-0.00117886 1.11091 -0.0150941
0.0487786 1.11811 0.00623198
0.0826963 1.16491 0.0799222
0.106313 1.11736 0.0703104
0.223715 1.03921 0.0634398
0.0134922 1.07143 0.00873294
0.239816 1.02583 -9.73188e-05
0.324224 1.08075 -0.091758
0.0827324 1.1653 -0.0800173
0.128333 1.10105 -0.0312321
0.338147 1.12716 -0.154034
0.235962 1.02839 -0.0306098
0.23585 1.02835 0.0303167
0.00873837 1.10722 -0.0205203
0.203574 1.12262 -0.0860365
0.10633 1.11767 -0.0704442
0.182296 1.05495 0.103307
0.0267375 1.07228 0.0132859
0.0829693 1.12251 -0.0675959
0.0268254 1.07269 -0.0133238
0.249312 1.07289 -0.0267992
0.252427 1.06786 -9.13636e-05
-0.00175613 1.10303 0.0015168
0.00866973 1.10788 0.0207102
0.0291964 1.12026 0.0261079
-0.264861 1.00358 -0.012153
-0.000283301 1.13344 0.0246424
0.0349402 1.39408 0.0834845
-0.276587 1.0596 0.0208645
0.0172467 1.07226 0.0560769
0.0374729 1.62285 0.143983
0.044079 1.21836 0.105311
-0.110949 1.09476 -0.00822501
0.00133485 1.16617 0.0366123
0.0764337 1.04088 0.0469596
-0.10314 0.99417 -0.0124897
0.0284969 1.17431 0.06981
-0.124345 1.00799 0.00388648
-0.240454 0.99976 -0.00836292
-0.226703 0.998358 -0.00287277
0.034527 1.6284 -0.14374
0.0148161 1.25954 -0.0473918
-0.0889957 1.00053 0.0105014
-0.139446 0.996756 2.06518e-05
-0.125813 0.995182 0.0117429
0.027558 1.1748 -0.0699109
0.00936285 1.16815 -0.0312943
-0.0799421 1.04301 -0.0234572
0.0941496 1.0578 -0.0650351
-0.13606 0.996437 0.00628535
0.0310662 1.3977 -0.0803577
0.035623 1.1702 -0.107218
-0.135653 0.997795 0.000321664
0.0347007 1.21657 -0.0912605
0.00538465 1.20581 -0.0550426
0.236372 1.08667 0.0554055
0.00142309 1.16696 -0.035819
-0.000162721 1.13316 -0.024406
0.0133654 1.07111 -0.00863166
-0.00174811 1.10376 0.0285574
0.249248 1.07302 0.0265644
0.203566 1.12219 0.0858027
-0.0017809 1.10279 -0.00147633
0.124525 1.12518 0.133942
0.0985635 1.13297 0.0538901
0.0828308 1.12206 0.0673819
0.0287942 1.1199 -0.0259093
0.128301 1.10064 0.0311121
0.0295248 1.11244 0.0173326
0.0244093 1.14085 0.0491217
0.0246011 1.14059 -0.0488373
0.0104742 1.11129 -0.0152135
0.0076777 1.11303 -0.0381045
0.0105283 1.11688 -0.0577972
-0.117272 1.01371 -0.00696199
-0.139513 0.996534 -0.000184832
0.0185907 1.11893 -0.0773938
0.0399737 1.2308 -0.103383
0.0291669 1.04477 -0.0566187
-0.0060479 0.991548 -0.010716
0.0423905 1.10273 -0.0959293
-0.0106089 0.997192 -0.00919609
-0.136842 0.99841 -0.00101944
0.0215598 1.08732 -0.0622797
-0.0478497 0.99024 -0.000114322
-0.0617881 0.99176 0.000507571
0.040644 1.12592 -0.0607749
-0.0614314 0.992285 -0.00118851
-0.0475354 0.991748 -0.00115197
-0.0906786 1.0399 0.0216264
0.0391227 1.12364 0.0745302
0.0327312 1.21503 0.0910033
-0.012115 0.995905 0.00571617
0.0448605 1.09777 0.0944589
-0.0574473 1.00557 0.0059336
0.0198656 1.118 0.0771225
-0.0403537 1.01576 0.0223958
0.04375 1.12386 -0.0396923
0.0111963 1.11738 0.0575864
0.00774685 1.11282 0.0385152
0.0492027 1.11848 -0.00631956
0.14091 1.07132 -0.00032006
0.0106702 1.11129 0.0152807
0.0987316 1.13331 -0.0540407
0.17887 1.09046 -0.0243519
0.236557 1.0868 -0.055502
0.0296993 1.11268 -0.0175396
0.139622 1.08751 -0.0630433
0.0599722 1.12614 -0.00969422
0.170566 1.06063 -0.0371312
0.0607131 1.12629 0.00967581
0.0441572 1.12374 0.039803
0.183229 1.0519 -0.0120955
0.0463047 1.08861 -0.0537452
0.183063 1.05201 0.0118536
0.13969 1.08734 0.0629471
0.134344 1.07581 0.0140037
0.17045 1.0605 0.0370396
0.178813 1.09054 0.024238
0.0423325 1.10559 0.00073176
0.192081 1.08207 0.00796254
0.192118 1.08153 -0.00829679
0.115947 1.09581 -0.027826
0.00176755 1.02194 0.0216543
0.134628 1.07567 -0.0140946
0.138585 1.08886 -0.00546785
0.0979337 1.137 -0.0340395
0.115644 1.09982 -0.00775013
0.0425315 1.10579 -0.0010026
0.039426 1.12585 0.0613097
0.0274525 1.10064 0.0293872
0.0870261 1.11982 -0.00684791
0.144874 1.08453 -0.000307516
0.025135 1.09332 0.0518435
0.0492743 1.065 0.0752829
0.0307457 1.08325 0.0680532
0.0472463 1.0882 0.0537259
0.0197143 1.05205 0.0623683
0.0303648 1.05729 0.0478643
0.00647649 0.993502 0.0281655
-0.00550666 0.992403 0.0110901
-0.0106405 0.991414 -3.40693e-06
0.0115828 0.993097 -0.0282556
0.0391728 1.0506 -0.0121638
-0.0392615 1.01512 -0.0225531
0.00419477 1.02569 -0.0226272
0.0311312 1.05495 -0.0659795
0.0374348 1.12459 -0.0746374
0.0463812 1.06982 -0.0759608
0.138602 1.09 0.00533675
0.0300829 1.08183 -0.0686424
0.115589 1.0992 0.00752312
0.0257182 1.09598 -0.0510635
0.0547371 1.10469 -0.0418254
0.116033 1.09561 0.027831
0.0271502 1.10053 -0.0293256
0.0979039 1.13681 0.0338785
0.0864106 1.1194 0.00630953
0.0546136 1.10216 0.0409975
0.0656578 1.11101 -0.0217486
0.0457033 1.08229 -0.0356364
0.0348291 1.06307 -0.0491688
0.0410796 1.07027 -0.0511688
-0.00212815 1.01979 -0.00116039
0.0419281 1.0443 -0.0570546
0.0253407 1.00189 -0.0101374
0.0232726 1.03815 0.0541826
0.0593854 1.06198 0.0267368
0.0562593 1.06748 -0.0273006
0.0278618 1.00588 0.0104287
0.0591342 1.07563 0.0279782
0.0318164 1.00899 0.0300314
0.0416901 1.06496 0.0495847
0.0668125 1.11123 0.0216722
0.0633336 1.09211 -0.0233775
0.0393403 1.0449 0.0123698
0.0456443 1.083 0.0353515
0.10769 1.08488 0.00110626
0.0570392 1.09828 0.0154306
0.0766956 1.08941 0.0157394
0.106456 1.08409 -0.00138033
0.0857887 1.08651 -0.000658194
0.0806736 1.09237 -0.00865324
0.0941216 1.0944 0.00479069
0.0478984 1.02263 0.00191136
0.106443 1.08005 -0.00239574
0.0747135 1.08803 0.0129407
0.0789972 1.06563 0.00183865
0.105504 1.08041 0.00120794
0.047089 1.03646 0.0348466
0.0749679 1.07211 -0.0166035
0.0438523 1.02471 -0.0252448
0.0676119 1.0717 0.00159901
0.0570813 1.09809 -0.0163198
0.0960536 1.09519 -0.00543811
0.0941125 1.09429 -0.00434423
0.0972858 1.09842 0.00476783
0.0442908 1.04735 0.0571682
0.0370633 1.05013 0.0342197
0.0277683 1.0081 -0.0315143
0.0417122 1.06032 -0.040375
0.055418 1.06487 -0.0284897
0.0605149 1.06509 0.00544143
0.0620512 1.04133 -0.0107218
0.0750871 1.08324 -0.00718802

SCALARS mises_stress double
LOOKUP_TABLE default
0.973384
0.93203
0.942868
0.953803
0.993215
1.29247
0.932138
0.942927
1.09374
1.03634
1.10609
1.29173
1.11205
1.25837
1.20209
1.21238
1.93838
1.16198
1.16601
1.06573
1.07188
1.03501
1.22171
1.93822
1.15312
1.14041
1.15062
1.12876
1.22422
1.11181
1.09459
1.13432
1.0751
0.953727
1.06486
0.929419
0.973647
1.13471
1.04422
1.03675
0.934567
0.934537
1.10345
1.04661
1.07542
0.992901
1.05942
1.08971
1.05978
0.973613
0.966689
1.10391
1.10416
1.10687
1.15913
1.13439
1.38451
1.22215
1.06817
1.62371
1.21075
1.15433
1.16722
1.00813
1.04977
1.16661
1.07559
1.13927
1.12892
1.63053
1.25489
1.04803
1.07329
1.06388
1.16756
1.16476
1.08595
1.02024
1.07102
1.38942
1.16766
1.07208
1.20996
1.2069
0.994526
1.1679
1.13403
1.0646
1.10574
0.973733
1.04614
1.10368
1.09327
1.09104
1.08929
1.1067
1.04382
1.09839
1.13204
1.13166
1.1064
1.11118
1.11616
1.07721
1.07311
1.11782
1.22448
1.03515
0.994759
1.09484
1.00266
1.07339
1.0821
1.01501
1.02405
1.11115
1.02439
1.01635
1.08872
1.11212
1.20931
1.00207
1.08841
1.03554
1.11622
1.03725
1.10477
1.11629
1.11097
1.09476
1.00828
1.10631
1.09133
1.01382
0.994611
1.09856
1.03066
1.09751
0.988567
1.09733
1.10448
0.973529
1.07027
0.973694
1.03045
1.01561
0.988471
1.01391
1.08504
1.00006
0.999517
1.0438
1.02174
1.01537
1.02665
1.09292
1.04689
1.08515
1.11175
1.08836
1.07901
1.01984
1.08469
1.04937
1.07469
1.06942
1.04792
1.04573
0.99148
0.995353
0.996777
0.988569
1.03179
1.03605
1.02435
1.04599
1.11387
1.05563
1.02777
1.07371
1.04629
1.08696
1.08079
1.04357
1.08839
1.09273
1.07885
1.07824
1.08034
1.06197
1.04955
1.05406
1.02086
1.02874
0.989618
1.031
1.0346
1.04157
0.992403
1.04843
0.994824
1.04826
1.08003
1.06263
1.02602
1.06268
1.03524
1.07123
1.05351
1.03498
1.04626
1.05445
1.05054
0.999543
1.03096
1.0529
1.02841
1.03171
1.01553
1.03706
1.00445
1.03955
1.07106
1.05051
1.05043
1.05318
1.03069
1.0338
0.996
1.04244
1.03944
1.0362
1.01191
1.04779

VECTORS deformation double
0 0.000491624 0.000119102
0 0.000476916 2.04569e-05
0 0.000480638 -6.48448e-05
-4.3953e-05 0.000486082 -8.25687e-05
-6.71508e-05 0.000500271 -0.00013446
0 0.000616276 -0.000352986
0 0.000476965 -2.07901e-05
0 0.000480685 6.45733e-05
-0.000106555 0.000544131 -0.000174286
0 0.000512683 0.000199994
-0.000166464 0.00055232 -3.72342e-05
0 0.000615951 0.000352679
-0.000167274 0.000555748 1.98735e-05
-0.000181612 0.000629292 6.36617e-05
-0.000176853 0.000599694 7.37938e-05
-0.000173011 0.000603161 0.000113413
-0.000372454 0.000927513 0.000269262
-0.000158333 0.000577269 0.000133138
-0.000170609 0.000583302 4.13333e-05
-0.000213532 0.000517031 -1.41188e-05
-0.000218182 0.000518865 -7.4273e-06
-0.000179658 0.000511087 -7.1465e-06
-0.000297335 0.000570994 -2.69832e-05
-0.000373049 0.000926945 -0.000271239
-0.000280242 0.000539237 1.9833e-05
-0.000271161 0.000536155 1.18888e-05
-0.000215933 0.000563215 8.99844e-06
-0.000263239 0.000533032 4.11971e-06
-0.000173087 0.000609536 -0.000113055
-0.000167226 0.000555633 -1.96223e-05
-0.000143327 0.000551737 8.10158e-06
-0.000133388 0.00057005 0.000103899
-0.000114447 0.000542731 9.14035e-05
-4.40243e-05 0.000486048 8.24717e-05
-0.000153968 0.000533691 1.13528e-05
-3.39657e-05 0.00047694 -1.26514e-07
0 0.00049174 -0.000119285
-0.000133429 0.000570241 -0.000104023
-0.000100991 0.000531274 -4.06018e-05
0 0.000512856 -0.000200244
-3.62777e-05 0.000478801 -3.97927e-05
-3.63284e-05 0.0004788 3.94117e-05
-0.000161713 0.000552297 -2.66765e-05
-6.66064e-05 0.000530775 -0.000111847
-0.000114485 0.000542883 -9.15775e-05
-6.70942e-05 0.00050013 0.000134299
-0.000147474 0.000532132 1.72717e-05
-0.000126891 0.000548808 -8.78746e-05
-0.00014749 0.000532319 -1.7321e-05
-3.62777e-05 0.000499049 -3.48389e-05
-3.39657e-05 0.000496066 -1.18773e-07
-0.000166333 0.000551779 1.97184e-06
-0.000161848 0.000552641 2.69233e-05
-0.00015344 0.000555748 3.39403e-05
-0.000282968 0.000541521 -1.5799e-05
-0.000170158 0.000566763 3.20352e-05
-0.000191642 0.000691798 0.00010853
-0.000297234 0.00057129 2.71238e-05
-0.000152216 0.000533543 7.29e-05
-0.000224692 0.000805806 0.000187178
-0.000160714 0.000602568 0.000136904
-0.000219689 0.000564023 -1.06925e-05
-0.000174257 0.000582882 4.75959e-05
-0.000117915 0.000508976 6.10475e-05
-0.000200696 0.000512556 -1.62366e-05
-0.000161899 0.000582882 9.0753e-05
-0.000213372 0.000522649 5.05242e-06
-0.000270191 0.000535948 -1.08718e-05
-0.000263105 0.000533185 -3.7346e-06
-0.000226996 0.00080902 -0.000186862
-0.000181523 0.000627548 -6.16093e-05
-0.000194578 0.000513616 1.36518e-05
-0.000219236 0.000519295 2.68474e-08
-0.000212184 0.000516463 1.52658e-05
-0.000162441 0.000583267 -9.08842e-05
-0.000170541 0.000582669 -4.06826e-05
-0.000196422 0.000533495 -3.04943e-05
-0.000111595 0.000514775 -8.45457e-05
-0.000217495 0.000518627 8.17096e-06
-0.000194123 0.000694192 -0.000104465
-0.000157719 0.000579757 -0.000139384
-0.000217496 0.000519245 4.18164e-07
-0.000165134 0.000603078 -0.000118639
-0.000178179 0.000602097 -7.15554e-05
-4.4815e-05 0.000507881 7.20271e-05
-0.000174333 0.000583267 -4.65647e-05
-0.000170056 0.000566606 -3.17278e-05
-0.000153984 0.000533551 -1.12212e-05
-0.000166438 0.000552143 3.71246e-05
-3.63285e-05 0.00049912 3.45337e-05
-6.6546e-05 0.000530562 0.000111544
-0.000166309 0.000551662 -1.91922e-06
-0.000106514 0.00054391 0.000174124
-0.000120664 0.0005517 7.00572e-05
-0.000126893 0.000548603 8.75965e-05
-0.000153589 0.000555633 -3.36821e-05
-0.000100946 0.000531077 4.04458e-05
-0.000152104 0.000551793 2.25324e-05
-0.000158923 0.000566763 6.38582e-05
-0.000158788 0.000566606 -6.34885e-05
-0.000161456 0.000554074 -1.97775e-05
-0.000163116 0.000555366 -4.95359e-05
-0.000162268 0.000556862 -7.51363e-05
-0.000210693 0.000524446 -9.05059e-06
-0.000219236 0.000519194 -2.40281e-07
-0.000158545 0.000556679 -0.000100612
-0.000164634 0.000609406 -0.000134398
-0.000142132 0.000518011 -7.36043e-05
-0.000151756 0.000496681 -1.39308e-05
-0.000144214 0.000545006 -0.000124708
-0.000154883 0.000500187 -1.19549e-05
-0.000218182 0.000519731 -1.32527e-06
-0.000152319 0.000540428 -8.09636e-05
-0.000172461 0.000502297 -1.48619e-07
-0.000179658 0.000505148 6.59842e-07
-0.000148566 0.000556862 -7.90074e-05
-0.000179558 0.000505357 -1.54506e-06
-0.00017253 0.000503004 -1.49757e-06
-0.000201324 0.000533552 2.81143e-05
-0.000148985 0.000555953 9.68892e-05
-0.000165888 0.000602603 0.000118304
-0.000155443 0.00049977 7.43102e-06
-0.000142235 0.000542155 0.000122797
-0.000179558 0.0005114 7.71368e-06
-0.000157767 0.000556019 0.000100259
-0.000172541 0.000513935 2.91145e-05
-0.000146704 0.000555366 -5.16e-05
-0.000162009 0.000557011 7.48623e-05
-0.00016305 0.000555248 5.00698e-05
-0.000143171 0.000551861 -8.21543e-06
-9.02432e-05 0.000514524 -4.16078e-07
-0.000161358 0.000554043 1.98649e-05
-0.000120631 0.000551845 -7.02529e-05
-7.41348e-05 0.000518401 -3.16575e-05
-4.47418e-05 0.000507918 -7.21526e-05
-0.000152053 0.000551887 -2.28015e-05
-9.33156e-05 0.000522812 -8.19563e-05
-0.000138935 0.000554073 -1.26025e-05
-7.3812e-05 0.000504732 -4.82706e-05
-0.000138588 0.00055404 1.25786e-05
-0.000146483 0.000555248 5.17439e-05
-6.617e-05 0.000498463 -1.57241e-05
-0.00014014 0.000537361 -6.98688e-05
-6.62704e-05 0.000498547 1.54097e-05
-9.32568e-05 0.000522719 8.18312e-05
-9.41991e-05 0.000517752 1.82048e-05
-7.38507e-05 0.000504685 4.81515e-05
-7.41743e-05 0.000518448 3.15094e-05
-0.000144672 0.000546444 9.51288e-07
-6.62704e-05 0.000512224 1.03513e-05
-6.617e-05 0.000511945 -1.07858e-05
-0.000106399 0.000530515 -3.61738e-05
-0.000152407 0.000510703 2.81506e-05
-9.4037e-05 0.000517643 -1.8323e-05
-9.4037e-05 0.000523644 -7.1082e-06
-0.000121583 0.000553809 -4.42513e-05
-0.000107151 0.000532564 -1.00752e-05
-0.000144603 0.000546515 -1.30339e-06
-0.000149164 0.000557011 7.97026e-05
-0.00015137 0.000546202 3.82033e-05
-0.00012446 0.000546858 -8.90228e-06
-9.02432e-05 0.000520536 -3.9977e-07
-0.00015143 0.000542889 6.73966e-05
-0.000135113 0.00052511 9.78678e-05
-0.000147115 0.000537014 8.84691e-05
-0.000139607 0.000537014 6.98437e-05
-0.00014795 0.000523068 8.10788e-05
-0.000143412 0.000524092 6.22235e-05
-0.000145787 0.000495779 3.66151e-05
-0.000151614 0.000497027 1.44171e-05
-0.000154032 0.000497303 -4.42901e-09
-0.000143173 0.000494811 -3.67323e-05
-0.000138004 0.000519427 -1.58129e-05
-0.000171899 0.00051345 -2.9319e-05
-0.000151756 0.000512216 -2.94154e-05
-0.000142677 0.000522804 -8.57734e-05
-0.000149971 0.000556679 -9.70287e-05
-0.000137283 0.000527953 -9.87491e-05
-9.41992e-05 0.00052421 6.93777e-06
-0.000147234 0.000536404 -8.92351e-05
-0.000107086 0.000532264 9.78005e-06
-0.000151539 0.000544135 -6.63826e-05
-0.000138335 0.000544135 -5.43731e-05
-0.000106326 0.000530402 3.61803e-05
-0.000151504 0.000546191 -3.81232e-05
-0.000121569 0.000553718 4.4042e-05
-0.000124705 0.00054674 8.20239e-06
-0.000138017 0.000542889 5.32968e-05
-0.000133823 0.000545658 -2.82732e-05
-0.000139492 0.00053429 -4.63274e-05
-0.000142046 0.000526312 -6.39195e-05
-0.000140001 0.000528972 -6.65195e-05
-0.000154032 0.000510213 -1.50851e-06
-0.000135681 0.000515862 -7.4171e-05
-0.000137613 0.000497143 -1.31787e-05
-0.000144087 0.000515586 7.04374e-05
-0.000129604 0.000522082 3.47579e-05
-0.000131993 0.000525302 -3.54908e-05
-0.000136951 0.000498759 1.35573e-05
-0.000131777 0.000528943 3.63716e-05
-0.00013544 0.000499722 3.90408e-05
-0.000138899 0.000526226 6.44601e-05
-0.000133279 0.000545595 2.81739e-05
-0.000132149 0.000536553 -3.03907e-05
-0.000137065 0.000516548 1.60807e-05
-0.000139628 0.000534652 4.59569e-05
-0.000108886 0.000526285 1.43814e-06
-0.000136222 0.000540583 2.00598e-05
-0.000125064 0.000533201 2.04612e-05
-0.000109386 0.000526076 -1.79443e-06
-0.000120083 0.000530388 -8.55653e-07
-0.000123518 0.000534083 -1.12492e-05
-0.0001171 0.000533083 6.2279e-06
-0.000129445 0.000504128 2.48477e-06
-0.000108785 0.000524057 -3.11446e-06
-0.000125848 0.000532808 1.68229e-05
-0.000120346 0.000520964 2.39024e-06
-0.000109309 0.000524378 1.57033e-06
-0.000131924 0.000511167 4.53006e-05
-0.000123333 0.000524811 -2.15845e-05
-0.00013178 0.000505775 -3.28182e-05
-0.00012695 0.00052571 2.07871e-06
-0.000136173 0.000540483 -2.12158e-05
-0.000116252 0.000533189 -7.06954e-06
-0.000117087 0.000533029 -5.6475e-06
-0.00011612 0.000534616 6.19818e-06
-0.000134957 0.00051703 7.43186e-05
-0.000138988 0.000519505 4.44857e-05
-0.00013733 0.000499883 -4.09685e-05
-0.000138192 0.000523904 -5.24875e-05
-0.000132021 0.000524121 -3.70366e-05
-0.000129506 0.000523467 7.07386e-06
-0.000125174 0.000511359 -1.39383e-05
-0.000124943 0.000530359 -9.34443e-06

SCALARS mises_deformation double
LOOKUP_TABLE default
0.000533151
0.00047823
0.000493586
0.000529174
0.000585331
0.000868097
0.000478322
0.000493525
0.000675677
0.000618737
0.00065488
0.000867492
0.000656493
0.000745277
0.000716453
0.000732582
0.00124979
0.000709146
0.00068847
0.00065109
0.000655894
0.000620855
0.00076577
0.00125096
0.000722225
0.000711898
0.000696921
0.000702697
0.000738472
0.000656326
0.000635792
0.000671694
0.000628358
0.000529135
0.000625373
0.000494798
0.000533381
0.000671957
0.000592495
0.000619124
0.000502679
0.000502616
0.000650102
0.0005992
0.000628602
0.00058506
0.000619906
0.000640387
0.000620104
0.000521643
0.000513891
0.000651089
0.000650557
0.000648945
0.000726153
0.00067059
0.000826574
0.000765986
0.000636391
0.000992962
0.000736197
0.000700456
0.000691726
0.000586649
0.000637692
0.000696448
0.000655961
0.000710919
0.000702734
0.000997215
0.000743013
0.000634161
0.000656947
0.000649646
0.000697219
0.000687693
0.000656338
0.00059694
0.000655193
0.000828905
0.000714644
0.000655632
0.000729922
0.000718965
0.000546146
0.000691939
0.000670325
0.000625238
0.000654673
0.000521681
0.000598796
0.000650958
0.000675334
0.000632634
0.000640079
0.000648891
0.000592242
0.000642701
0.000669912
0.000669567
0.000650921
0.000658019
0.000666126
0.000655879
0.000656851
0.000673539
0.000743638
0.000615155
0.000587945
0.000665645
0.00059336
0.000656601
0.000645945
0.000607184
0.000614986
0.000658502
0.000615122
0.000607923
0.000659544
0.000665034
0.000729796
0.000593114
0.000660692
0.000621109
0.000672254
0.000620578
0.000647623
0.000666004
0.000657982
0.000635815
0.000565077
0.000650833
0.00063282
0.000561849
0.000546192
0.000642787
0.000592434
0.000635419
0.000551768
0.000635158
0.000647399
0.000535322
0.000631147
0.000535437
0.000592257
0.000571582
0.000551713
0.000561893
0.000631339
0.000548664
0.000548353
0.000594255
0.000603537
0.000571386
0.000576576
0.000628248
0.000593696
0.000631365
0.000659283
0.000638988
0.000618744
0.000571031
0.000643037
0.000627439
0.000642269
0.000630459
0.000626577
0.000618074
0.000585962
0.00058822
0.000589607
0.000583291
0.000601068
0.000619694
0.00060475
0.000624775
0.000666418
0.000631913
0.000577229
0.000642085
0.000593344
0.00064399
0.00063195
0.000594099
0.000639053
0.000628106
0.000618756
0.000630259
0.000625356
0.000621202
0.000619838
0.000621887
0.000602196
0.000609114
0.000578812
0.000612996
0.000600546
0.000605376
0.000579976
0.000608948
0.00058337
0.00061787
0.000624928
0.000615653
0.00059765
0.000621561
0.00058834
0.000620994
0.000606534
0.000588452
0.00059952
0.000605681
0.000600358
0.000579807
0.000586096
0.00060632
0.000590423
0.000586726
0.000593538
0.000597295
0.00058571
0.000599366
0.000620978
0.000599949
0.00060028
0.000601242
0.000609819
0.00060609
0.000585173
0.000611749
0.000604518
0.000598942
0.000584592
0.000602842
