# vtk DataFile Version 1.0
results.vtk  2D Unstructured Grid of Linear Triangles
ASCII

DATASET UNSTRUCTURED_GRID
POINTS 35 double
-2.01393 0.2 0
-2 1.33333 0
-3 0.8 0
-3 2 0
-1.04675 -0.486786 0
4.44089e-16 -4.44089e-16 0
-1 0.666667 0
0.90989 -1.89767 0
2 -1.33333 0
1 -0.666667 0
2.07449 -2.68537 0
3 -2 0
-2.01393 -1 0
-3 -0.4 0
-0.0323197 -1.09364 0
3.48196 -3.01142 0
4 -2 0
-3 -4 0
-1.85714 -4 0
-3 -2.8 0
5 -3 0
5 -2 0
-2.05383 -2.17248 0
-3 -1.6 0
-1.33106 -2.91616 0
-0.100787 -2.96838 0
-0.714286 -4 0
1 -3.01026 0
0.428571 -4 0
2.71429 -4 0
1.57143 -4 0
3.85714 -4 0
5 -4 0
-1.09542 -1.64766 0
-0.24321 -2.03914 0
CELLS 46 184
3 0 1 2
3 2 1 3
3 4 5 6
3 7 8 9
3 0 6 1
3 10 11 8
3 12 0 13
3 14 9 5
3 15 16 11
3 17 18 19
3 20 21 16
3 22 23 19
3 24 19 18
3 25 24 26
3 27 25 28
3 29 10 30
3 31 15 29
3 20 15 31
3 20 31 32
3 0 2 13
3 4 6 0
3 12 13 23
3 14 7 9
3 33 22 24
3 10 15 11
3 10 8 7
3 27 28 30
3 12 4 0
3 24 18 26
3 33 14 4
3 14 5 4
3 34 25 7
3 15 20 16
3 15 10 29
3 22 12 23
3 33 4 12
3 24 22 19
3 27 10 7
3 24 34 33
3 25 26 28
3 27 30 10
3 27 7 25
3 34 7 14
3 33 12 22
3 24 25 34
3 33 34 14
CELL_TYPES 46
5
5
5
5
5
5
5
5
5
5
5
5
5
5
5
5
5
5
5
5
5
5
5
5
5
5
5
5
5
5
5
5
5
5
5
5
5
5
5
5
5
5
5
5
5
5

POINT_DATA 35
VECTORS displacements double
0.000438821 -0.000489339 0.0
0.000404974 -0.0005108 0.0
0 0 0.0
0 0 0.0
0.000770593 -0.00118377 0.0
0.00152039 -0.00239649 0.0
0.000969382 -0.00122521 0.0
0.000172423 -0.00416274 0.0
0.00170859 -0.00707331 0.0
0.00186598 -0.00430712 0.0
-0.00135909 -0.0074437 0.0
0.000835473 -0.0108746 0.0
0.000241057 -0.000404157 0.0
0 0 0.0
0.000857731 -0.00238478 0.0
-0.00252959 -0.0128343 0.0
0.00130728 -0.0152581 0.0
0 0 0.0
-0.00113397 -0.000577121 0.0
0 0 0.0
-0.0024255 -0.0191021 0.0
0.00146487 -0.019382 0.0
-0.00016155 -0.000338993 0.0
0 0 0.0
-0.000828281 -0.000807261 0.0
-0.00143735 -0.00236955 0.0
-0.00238585 -0.00167641 0.0
-0.00192498 -0.00455541 0.0
-0.00359438 -0.00349956 0.0
-0.00564641 -0.00991797 0.0
-0.0047661 -0.00621504 0.0
-0.00618356 -0.0143638 0.0
-0.0062842 -0.019046 0.0
0.00014083 -0.0010807 0.0
-0.000162177 -0.00210832 0.0

SCALARS summary double
LOOKUP_TABLE default
0.000657279
0.000651859
0
0
0.00141249
0.00283808
0.00156232
0.00416631
0.00727674
0.00469395
0.00756676
0.0109066
0.000470586
0
0.00253434
0.0130812
0.015314
0
0.00127238
0
0.0192555
0.0194373
0.000375519
0
0.0011566
0.00277141
0.00291593
0.00494543
0.00501663
0.0114126
0.00783214
0.0156382
0.0200559
0.00108983
0.00211455

SCALARS SmoothStress double
LOOKUP_TABLE default
0
0
0
0
0
0
0
0
0
0
0
0
0
0
0
0
0
0
0
0
0
0
0
0
0
0
0
0
0
0
0
0
0
0
0

CELL_DATA 46
TENSORS stress double
8970.53 -4312.62 0
-4312.62 1987.81 0
0 0 0
8639.44 -4086.4 0
-4086.4 2159.86 0
0 0 0
13892.1 -8141.74 0
-8141.74 3697.96 0
0 0 0
15887.7 -11114.5 0
-11114.5 5596.53 0
0 0 0
11467.8 -6061.02 0
-6061.02 2665.51 0
0 0 0
14520.3 -11608.8 0
-11608.8 4969.67 0
0 0 0
6975.89 -2306.05 0
-2306.05 324.267 0
0 0 0
15920.5 -10372.2 0
-10372.2 4877.65 0
0 0 0
9258.8 -6652.88 0
-6652.88 -709.594 0
0 0 0
-21167.3 -4039.84 0
-4039.84 -5291.83 0
0 0 0
1868.9 -1868.85 0
-1868.85 -5130.99 0
0 0 0
-3642.47 -2866.24 0
-2866.24 -910.617 0
0 0 0
-9720.7 189.253 0
189.253 -1996.01 0
0 0 0
-9056.09 -659.701 0
-659.701 -639.149 0
0 0 0
-7491.8 -656.371 0
-656.371 -313.768 0
0 0 0
-14804.4 -2829.52 0
-2829.52 2403.74 0
0 0 0
-9649.19 -2978.37 0
-2978.37 -996.547 0
0 0 0
761.627 -3337.16 0
-3337.16 -205.238 0
0 0 0
-2178.11 -1905.77 0
-1905.77 -1667.78 0
0 0 0
9493.76 -3970.01 0
-3970.01 2373.44 0
0 0 0
9615.61 -4549.61 0
-4549.61 2271.3 0
0 0 0
5215.2 -3278.93 0
-3278.93 1303.8 0
0 0 0
9072.96 -4202.33 0
-4202.33 2660.5 0
0 0 0
-2868.92 441.047 0
441.047 -2315.81 0
0 0 0
-785.557 -4049.9 0
-4049.9 2333.77 0
0 0 0
5523.43 -3618.63 0
-3618.63 3847.46 0
0 0 0
-20245.3 -779.156 0
-779.156 1039.01 0
0 0 0
9435.94 -4828.83 0
-4828.83 939.278 0
0 0 0
-22011.1 -1185.2 0
-1185.2 -411.85 0
0 0 0
8337.84 -5448.55 0
-5448.55 1320.48 0
0 0 0
9526.36 -4613.99 0
-4613.99 2858.82 0
0 0 0
2592.9 -3136.14 0
-3136.14 806.317 0
0 0 0
-650.496 -2830.42 0
-2830.42 -5816.81 0
0 0 0
-1721.82 -4846.33 0
-4846.33 -21.7358 0
0 0 0
547.144 -334.831 0
-334.831 -713.414 0
0 0 0
5365.09 -1958.94 0
-1958.94 216.276 0
0 0 0
-9015.18 -220.331 0
-220.331 1169.07 0
0 0 0
-198.738 -6769.91 0
-6769.91 2590.22 0
0 0 0
-49.0109 -3499.9 0
-3499.9 143.274 0
0 0 0
-21082.9 -375.675 0
-375.675 265.264 0
0 0 0
-5632.08 -139.14 0
-139.14 718.24 0
0 0 0
-6916.94 -987.235 0
-987.235 2124.84 0
0 0 0
4037.54 -6019.13 0
-6019.13 3168.3 0
0 0 0
2612.03 -3348.9 0
-3348.9 57.063 0
0 0 0
-8915.56 309.701 0
309.701 -487.709 0
0 0 0
2595.05 -1321.75 0
-1321.75 223.478 0
0 0 0

SCALARS XY_STRESS double
LOOKUP_TABLE default
-4312.62
-4086.4
-8141.74
-11114.5
-6061.02
-11608.8
-2306.05
-10372.2
-6652.88
-4039.84
-1868.85
-2866.24
189.253
-659.701
-656.371
-2829.52
-2978.37
-3337.16
-1905.77
-3970.01
-4549.61
-3278.93
-4202.33
441.047
-4049.9
-3618.63
-779.156
-4828.83
-1185.2
-5448.55
-4613.99
-3136.14
-2830.42
-4846.33
-334.831
-1958.94
-220.331
-6769.91
-3499.9
-375.675
-139.14
-987.235
-6019.13
-3348.9
309.701
-1321.75

SCALARS XY_DEFORM double
LOOKUP_TABLE default
-0.000539077
-0.000510799
-0.00101772
-0.00138931
-0.000757627
-0.0014511
-0.000288256
-0.00129652
-0.00083161
-0.00050498
-0.000233606
-0.00035828
2.36566e-05
-8.24626e-05
-8.20463e-05
-0.00035369
-0.000372296
-0.000417145
-0.000238221
-0.000496252
-0.000568701
-0.000409866
-0.000525291
5.51308e-05
-0.000506238
-0.000452328
-9.73945e-05
-0.000603603
-0.00014815
-0.000681068
-0.000576749
-0.000392018
-0.000353802
-0.000605791
-4.18539e-05
-0.000244867
-2.75414e-05
-0.000846238
-0.000437488
-4.69594e-05
-1.73924e-05
-0.000123404
-0.000752392
-0.000418613
3.87126e-05
-0.000165219

SCALARS mises_stress double
LOOKUP_TABLE default
11062.8
10523.3
18819.1
23778.5
14773.5
23825.7
7903.15
22854.9
15019.4
20322.6
7063.07
5951.96
8898.36
8828.29
7427.47
16868.7
10540.2
5847.09
3845.64
10977.9
11742
7372.43
10873.7
2744.7
7556.59
7958.86
20828.1
12288.6
21904.5
12219.4
11642.9
5898.2
7382.98
8566.7
1238.95
6259.63
9660.49
12031.6
6064.48
21226.8
6028.23
8365.42
11056.1
6349.98
8698.55
3383.1

VECTORS deformation double
0.000423679 -1.2741e-05 -0.000539077
0.000404974 0 -0.000510799
0.000648381 1.12468e-05 -0.00101772
0.000724426 8.12307e-05 -0.00138931
0.000540073 -1.00723e-05 -0.000757627
0.000663892 6.69803e-05 -0.0014511
0.000344741 -7.09853e-05 -0.000288256
0.000735056 4.48758e-05 -0.00129652
0.00047181 -0.000151215 -0.00083161
-0.000992218 0 -0.00050498
0.000157582 -0.000279911 -0.000233606
-0.000170741 0 -0.00035828
-0.000461085 2.17083e-05 2.36566e-05
-0.000444815 8.12437e-05 -8.24626e-05
-0.000370668 7.79592e-05 -8.20463e-05
-0.000770268 0.000305242 -0.00035369
-0.000470003 7.07875e-05 -0.000372296
4.06468e-05 -1.97822e-05 -0.000417145
-8.80584e-05 -5.61625e-05 -0.000238221
0.00044502 0 -0.000496252
0.000452389 -6.63027e-06 -0.000568701
0.000244463 0 -0.000409866
0.000420392 1.96132e-05 -0.000525291
-0.000114499 -7.99291e-05 5.51308e-05
-6.845e-05 0.000126508 -0.000506238
0.000228078 0.00012333 -0.000452328
-0.00102525 0.000305017 -9.73945e-05
0.000460056 -7.09853e-05 -0.000603603
-0.00109541 0.000254546 -0.00014815
0.000400386 -3.81989e-05 -0.000681068
0.000440583 2.38616e-05 -0.000576749
0.000119566 7.9046e-06 -0.000392018
4.01854e-05 -0.000282709 -0.000353802
-8.58195e-05 2.0436e-05 -0.000605791
3.62749e-05 -4.251e-05 -4.18539e-05
0.000265551 -5.62498e-05 -0.000244867
-0.000465372 0.000171143 -2.75414e-05
-4.23146e-05 0.000131995 -0.000846238
-4.24146e-06 7.77631e-06 -0.000437488
-0.00105746 0.0002768 -4.69594e-05
-0.000290582 0.000106313 -1.73924e-05
-0.000372407 0.000192704 -0.000123404
0.000162273 0.000107946 -0.000752392
0.000129888 -2.97972e-05 -0.000418613
-0.000439682 8.70591e-05 3.87126e-05
0.000126959 -2.12642e-05 -0.000165219

SCALARS mises_deformation double
LOOKUP_TABLE default
0.00102804
0.000973012
0.00187629
0.00250261
0.00142099
0.00259188
0.00063058
0.00235632
0.00154646
0.00132269
0.00055768
0.000643619
0.000474087
0.000510881
0.000438821
0.00113881
0.000821582
0.000724484
0.000419775
0.000967905
0.00108534
0.000750821
0.000998329
0.000139517
0.000893409
0.000808024
0.00121875
0.0011586
0.00126861
0.00125245
0.00108724
0.000688801
0.000684418
0.00105379
9.96004e-05
0.000518169
0.000572522
0.00147416
0.000757825
0.00122236
0.000357128
0.000541546
0.00131101
0.000739823
0.000493633
0.00031806
