# vtk DataFile Version 1.0
results.vtk  2D Unstructured Grid of Linear Triangles
ASCII

DATASET UNSTRUCTURED_GRID
POINTS 9 double
-5 8.88178e-16 0
-5 -5 0
-8.88178e-16 -5 0
-5 5 0
-0.46426 0.46426 0
8.88178e-16 5 0
5 -8.88178e-16 0
5 5 0
5 -5 0
CELLS 8 32
3 0 1 2
3 3 4 5
3 6 7 5
3 3 0 4
3 8 6 2
3 6 4 2
3 4 0 2
3 4 6 5
CELL_TYPES 8
5
5
5
5
5
5
5
5

POINT_DATA 9
VECTORS displacements double
0.000179888 -0.000824879 0.0
0.00044169 -0.00175242 0.0
6.92204e-05 -0.00122133 0.0
6.77374e-16 6.77374e-16 0.0
1.58423e-05 -0.000575809 0.0
6.77374e-16 6.77374e-16 0.0
-0.000110671 -0.00072946 0.0
6.77374e-16 6.77374e-16 0.0
-0.000298693 -0.00166156 0.0

SCALARS summary double
LOOKUP_TABLE default
0.000844266
0.00180722
0.00122329
9.57951e-16
0.000576027
9.57951e-16
0.000737808
9.57951e-16
0.00168819

CELL_DATA 8
VECTORS stress double
-0.0414105 0.358592 0.0414286
0.0837029 0.27901 -0.00268675
0.0961926 0.320642 0.0170264
0.0373799 0.341166 0.00157597
-0.038806 0.361198 -0.0388015
0.0237778 0.240308 -0.0231036
0.00364418 0.244576 0.0228623
0.0337691 0.267547 -0.0140747

SCALARS mises_stress double
LOOKUP_TABLE default
0.387687
0.248033
0.286515
0.324108
0.387947
0.23281
0.245983
0.253538

VECTORS deformation double
-7.4494e-05 0.000185507 5.38572e-05
0 0.000126949 -3.49277e-06
0 0.000145892 2.21343e-05
-3.24849e-05 0.000164976 2.04876e-06
-7.35827e-05 0.00018642 -5.04419e-05
-2.41573e-05 0.000116587 -3.00347e-05
-3.48644e-05 0.000121742 2.9721e-05
-2.32475e-05 0.000128708 -1.82971e-05

SCALARS mises_deformation double
LOOKUP_TABLE default
0.000249967
0.000127093
0.000150845
0.000183423
0.000248027
0.000140353
0.00015143
0.000145268
